\* Quantum_Circuit_Routing *\
Minimize
Minimize_Cost: 3.17 y_CZ_0_0_0 + 3.17 y_CZ_0_0_1 + 3.17 y_CZ_0_0_2
 + 3.17 y_CZ_0_0_3 + 3.17 y_CZ_0_0_4 + 3.17 y_CZ_0_0_5 + 3.17 y_CZ_0_1_0
 + 3.17 y_CZ_0_1_1 + 3.17 y_CZ_0_1_2 + 3.17 y_CZ_0_1_3 + 3.17 y_CZ_0_1_4
 + 3.17 y_CZ_0_1_5 + 3.17 y_CZ_0_2_0 + 3.17 y_CZ_0_2_1 + 3.17 y_CZ_0_2_2
 + 3.17 y_CZ_0_2_3 + 3.17 y_CZ_0_2_4 + 3.17 y_CZ_0_2_5 + 3.17 y_CZ_0_3_0
 + 3.17 y_CZ_0_3_1 + 3.17 y_CZ_0_3_2 + 3.17 y_CZ_0_3_3 + 3.17 y_CZ_0_3_4
 + 3.17 y_CZ_0_3_5 + 3.17 y_CZ_0_4_0 + 3.17 y_CZ_0_4_1 + 3.17 y_CZ_0_4_2
 + 3.17 y_CZ_0_4_3 + 3.17 y_CZ_0_4_4 + 3.17 y_CZ_0_4_5 + 3.17 y_CZ_0_5_0
 + 3.17 y_CZ_0_5_1 + 3.17 y_CZ_0_5_2 + 3.17 y_CZ_0_5_3 + 3.17 y_CZ_0_5_4
 + 3.17 y_CZ_0_5_5 + 3.17 y_CZ_1_0_0 + 3.17 y_CZ_1_0_1 + 3.17 y_CZ_1_0_2
 + 3.17 y_CZ_1_0_3 + 3.17 y_CZ_1_0_4 + 3.17 y_CZ_1_0_5 + 3.17 y_CZ_1_1_0
 + 3.17 y_CZ_1_1_1 + 3.17 y_CZ_1_1_2 + 3.17 y_CZ_1_1_3 + 3.17 y_CZ_1_1_4
 + 3.17 y_CZ_1_1_5 + 3.17 y_CZ_1_2_0 + 3.17 y_CZ_1_2_1 + 3.17 y_CZ_1_2_2
 + 3.17 y_CZ_1_2_3 + 3.17 y_CZ_1_2_4 + 3.17 y_CZ_1_2_5 + 3.17 y_CZ_1_3_0
 + 3.17 y_CZ_1_3_1 + 3.17 y_CZ_1_3_2 + 3.17 y_CZ_1_3_3 + 3.17 y_CZ_1_3_4
 + 3.17 y_CZ_1_3_5 + 3.17 y_CZ_1_4_0 + 3.17 y_CZ_1_4_1 + 3.17 y_CZ_1_4_2
 + 3.17 y_CZ_1_4_3 + 3.17 y_CZ_1_4_4 + 3.17 y_CZ_1_4_5 + 3.17 y_CZ_1_5_0
 + 3.17 y_CZ_1_5_1 + 3.17 y_CZ_1_5_2 + 3.17 y_CZ_1_5_3 + 3.17 y_CZ_1_5_4
 + 3.17 y_CZ_1_5_5 + 3.17 y_CZ_2_0_0 + 3.17 y_CZ_2_0_1 + 3.17 y_CZ_2_0_2
 + 3.17 y_CZ_2_0_3 + 3.17 y_CZ_2_0_4 + 3.17 y_CZ_2_0_5 + 3.17 y_CZ_2_1_0
 + 3.17 y_CZ_2_1_1 + 3.17 y_CZ_2_1_2 + 3.17 y_CZ_2_1_3 + 3.17 y_CZ_2_1_4
 + 3.17 y_CZ_2_1_5 + 3.17 y_CZ_2_2_0 + 3.17 y_CZ_2_2_1 + 3.17 y_CZ_2_2_2
 + 3.17 y_CZ_2_2_3 + 3.17 y_CZ_2_2_4 + 3.17 y_CZ_2_2_5 + 3.17 y_CZ_2_3_0
 + 3.17 y_CZ_2_3_1 + 3.17 y_CZ_2_3_2 + 3.17 y_CZ_2_3_3 + 3.17 y_CZ_2_3_4
 + 3.17 y_CZ_2_3_5 + 3.17 y_CZ_2_4_0 + 3.17 y_CZ_2_4_1 + 3.17 y_CZ_2_4_2
 + 3.17 y_CZ_2_4_3 + 3.17 y_CZ_2_4_4 + 3.17 y_CZ_2_4_5 + 3.17 y_CZ_2_5_0
 + 3.17 y_CZ_2_5_1 + 3.17 y_CZ_2_5_2 + 3.17 y_CZ_2_5_3 + 3.17 y_CZ_2_5_4
 + 3.17 y_CZ_2_5_5 + 3.17 y_CZ_3_0_0 + 3.17 y_CZ_3_0_1 + 3.17 y_CZ_3_0_2
 + 3.17 y_CZ_3_0_3 + 3.17 y_CZ_3_0_4 + 3.17 y_CZ_3_0_5 + 3.17 y_CZ_3_1_0
 + 3.17 y_CZ_3_1_1 + 3.17 y_CZ_3_1_2 + 3.17 y_CZ_3_1_3 + 3.17 y_CZ_3_1_4
 + 3.17 y_CZ_3_1_5 + 3.17 y_CZ_3_2_0 + 3.17 y_CZ_3_2_1 + 3.17 y_CZ_3_2_2
 + 3.17 y_CZ_3_2_3 + 3.17 y_CZ_3_2_4 + 3.17 y_CZ_3_2_5 + 3.17 y_CZ_3_3_0
 + 3.17 y_CZ_3_3_1 + 3.17 y_CZ_3_3_2 + 3.17 y_CZ_3_3_3 + 3.17 y_CZ_3_3_4
 + 3.17 y_CZ_3_3_5 + 3.17 y_CZ_3_4_0 + 3.17 y_CZ_3_4_1 + 3.17 y_CZ_3_4_2
 + 3.17 y_CZ_3_4_3 + 3.17 y_CZ_3_4_4 + 3.17 y_CZ_3_4_5 + 3.17 y_CZ_3_5_0
 + 3.17 y_CZ_3_5_1 + 3.17 y_CZ_3_5_2 + 3.17 y_CZ_3_5_3 + 3.17 y_CZ_3_5_4
 + 3.17 y_CZ_3_5_5 + y_F_0_0_0 + y_F_0_0_1 + y_F_0_0_2 + y_F_0_0_3 + y_F_0_0_4
 + y_F_0_0_5 + y_F_0_1_0 + y_F_0_1_1 + y_F_0_1_2 + y_F_0_1_3 + y_F_0_1_4
 + y_F_0_1_5 + y_F_0_2_0 + y_F_0_2_1 + y_F_0_2_2 + y_F_0_2_3 + y_F_0_2_4
 + y_F_0_2_5 + y_F_0_3_0 + y_F_0_3_1 + y_F_0_3_2 + y_F_0_3_3 + y_F_0_3_4
 + y_F_0_3_5 + y_F_0_4_0 + y_F_0_4_1 + y_F_0_4_2 + y_F_0_4_3 + y_F_0_4_4
 + y_F_0_4_5 + y_F_0_5_0 + y_F_0_5_1 + y_F_0_5_2 + y_F_0_5_3 + y_F_0_5_4
 + y_F_0_5_5 + y_F_1_0_0 + y_F_1_0_1 + y_F_1_0_2 + y_F_1_0_3 + y_F_1_0_4
 + y_F_1_0_5 + y_F_1_1_0 + y_F_1_1_1 + y_F_1_1_2 + y_F_1_1_3 + y_F_1_1_4
 + y_F_1_1_5 + y_F_1_2_0 + y_F_1_2_1 + y_F_1_2_2 + y_F_1_2_3 + y_F_1_2_4
 + y_F_1_2_5 + y_F_1_3_0 + y_F_1_3_1 + y_F_1_3_2 + y_F_1_3_3 + y_F_1_3_4
 + y_F_1_3_5 + y_F_1_4_0 + y_F_1_4_1 + y_F_1_4_2 + y_F_1_4_3 + y_F_1_4_4
 + y_F_1_4_5 + y_F_1_5_0 + y_F_1_5_1 + y_F_1_5_2 + y_F_1_5_3 + y_F_1_5_4
 + y_F_1_5_5 + y_F_2_0_0 + y_F_2_0_1 + y_F_2_0_2 + y_F_2_0_3 + y_F_2_0_4
 + y_F_2_0_5 + y_F_2_1_0 + y_F_2_1_1 + y_F_2_1_2 + y_F_2_1_3 + y_F_2_1_4
 + y_F_2_1_5 + y_F_2_2_0 + y_F_2_2_1 + y_F_2_2_2 + y_F_2_2_3 + y_F_2_2_4
 + y_F_2_2_5 + y_F_2_3_0 + y_F_2_3_1 + y_F_2_3_2 + y_F_2_3_3 + y_F_2_3_4
 + y_F_2_3_5 + y_F_2_4_0 + y_F_2_4_1 + y_F_2_4_2 + y_F_2_4_3 + y_F_2_4_4
 + y_F_2_4_5 + y_F_2_5_0 + y_F_2_5_1 + y_F_2_5_2 + y_F_2_5_3 + y_F_2_5_4
 + y_F_2_5_5 + y_F_3_0_0 + y_F_3_0_1 + y_F_3_0_2 + y_F_3_0_3 + y_F_3_0_4
 + y_F_3_0_5 + y_F_3_1_0 + y_F_3_1_1 + y_F_3_1_2 + y_F_3_1_3 + y_F_3_1_4
 + y_F_3_1_5 + y_F_3_2_0 + y_F_3_2_1 + y_F_3_2_2 + y_F_3_2_3 + y_F_3_2_4
 + y_F_3_2_5 + y_F_3_3_0 + y_F_3_3_1 + y_F_3_3_2 + y_F_3_3_3 + y_F_3_3_4
 + y_F_3_3_5 + y_F_3_4_0 + y_F_3_4_1 + y_F_3_4_2 + y_F_3_4_3 + y_F_3_4_4
 + y_F_3_4_5 + y_F_3_5_0 + y_F_3_5_1 + y_F_3_5_2 + y_F_3_5_3 + y_F_3_5_4
 + y_F_3_5_5 + 0.01 y_LC_0_0 + 0.01 y_LC_0_1 + 0.01 y_LC_0_2 + 0.01 y_LC_0_3
 + 0.01 y_LC_0_4 + 0.01 y_LC_0_5 + 0.01 y_LC_1_0 + 0.01 y_LC_1_1
 + 0.01 y_LC_1_2 + 0.01 y_LC_1_3 + 0.01 y_LC_1_4 + 0.01 y_LC_1_5
 + 0.01 y_LC_2_0 + 0.01 y_LC_2_1 + 0.01 y_LC_2_2 + 0.01 y_LC_2_3
 + 0.01 y_LC_2_4 + 0.01 y_LC_2_5 + 0.01 y_LC_3_0 + 0.01 y_LC_3_1
 + 0.01 y_LC_3_2 + 0.01 y_LC_3_3 + 0.01 y_LC_3_4 + 0.01 y_LC_3_5
Subject To
CZ_F_Limit_0_0_0_0: 2 L_0_0_0 + y_CZ_0_0_0 + y_F_0_0_0 <= 2
CZ_F_Limit_0_0_0_1: 2 L_0_1_0 + y_CZ_0_0_0 + y_F_0_0_0 <= 2
CZ_F_Limit_0_0_0_2: 2 L_0_2_0 + y_CZ_0_0_0 + y_F_0_0_0 <= 2
CZ_F_Limit_0_0_0_3: 2 L_0_3_0 + y_CZ_0_0_0 + y_F_0_0_0 <= 2
CZ_F_Limit_0_0_0_4: 2 L_0_4_0 + y_CZ_0_0_0 + y_F_0_0_0 <= 2
CZ_F_Limit_0_0_0_5: 2 L_0_5_0 + y_CZ_0_0_0 + y_F_0_0_0 <= 2
CZ_F_Limit_0_0_1_0: L_0_0_0 + L_0_0_1 + y_CZ_0_0_1 + y_F_0_0_1 <= 2
CZ_F_Limit_0_0_1_1: L_0_1_0 + L_0_1_1 + y_CZ_0_0_1 + y_F_0_0_1 <= 2
CZ_F_Limit_0_0_1_2: L_0_2_0 + L_0_2_1 + y_CZ_0_0_1 + y_F_0_0_1 <= 2
CZ_F_Limit_0_0_1_3: L_0_3_0 + L_0_3_1 + y_CZ_0_0_1 + y_F_0_0_1 <= 2
CZ_F_Limit_0_0_1_4: L_0_4_0 + L_0_4_1 + y_CZ_0_0_1 + y_F_0_0_1 <= 2
CZ_F_Limit_0_0_1_5: L_0_5_0 + L_0_5_1 + y_CZ_0_0_1 + y_F_0_0_1 <= 2
CZ_F_Limit_0_0_2_0: L_0_0_0 + L_0_0_2 + y_CZ_0_0_2 + y_F_0_0_2 <= 2
CZ_F_Limit_0_0_2_1: L_0_1_0 + L_0_1_2 + y_CZ_0_0_2 + y_F_0_0_2 <= 2
CZ_F_Limit_0_0_2_2: L_0_2_0 + L_0_2_2 + y_CZ_0_0_2 + y_F_0_0_2 <= 2
CZ_F_Limit_0_0_2_3: L_0_3_0 + L_0_3_2 + y_CZ_0_0_2 + y_F_0_0_2 <= 2
CZ_F_Limit_0_0_2_4: L_0_4_0 + L_0_4_2 + y_CZ_0_0_2 + y_F_0_0_2 <= 2
CZ_F_Limit_0_0_2_5: L_0_5_0 + L_0_5_2 + y_CZ_0_0_2 + y_F_0_0_2 <= 2
CZ_F_Limit_0_0_3_0: L_0_0_0 + L_0_0_3 + y_CZ_0_0_3 + y_F_0_0_3 <= 2
CZ_F_Limit_0_0_3_1: L_0_1_0 + L_0_1_3 + y_CZ_0_0_3 + y_F_0_0_3 <= 2
CZ_F_Limit_0_0_3_2: L_0_2_0 + L_0_2_3 + y_CZ_0_0_3 + y_F_0_0_3 <= 2
CZ_F_Limit_0_0_3_3: L_0_3_0 + L_0_3_3 + y_CZ_0_0_3 + y_F_0_0_3 <= 2
CZ_F_Limit_0_0_3_4: L_0_4_0 + L_0_4_3 + y_CZ_0_0_3 + y_F_0_0_3 <= 2
CZ_F_Limit_0_0_3_5: L_0_5_0 + L_0_5_3 + y_CZ_0_0_3 + y_F_0_0_3 <= 2
CZ_F_Limit_0_0_4_0: L_0_0_0 + L_0_0_4 + y_CZ_0_0_4 + y_F_0_0_4 <= 2
CZ_F_Limit_0_0_4_1: L_0_1_0 + L_0_1_4 + y_CZ_0_0_4 + y_F_0_0_4 <= 2
CZ_F_Limit_0_0_4_2: L_0_2_0 + L_0_2_4 + y_CZ_0_0_4 + y_F_0_0_4 <= 2
CZ_F_Limit_0_0_4_3: L_0_3_0 + L_0_3_4 + y_CZ_0_0_4 + y_F_0_0_4 <= 2
CZ_F_Limit_0_0_4_4: L_0_4_0 + L_0_4_4 + y_CZ_0_0_4 + y_F_0_0_4 <= 2
CZ_F_Limit_0_0_4_5: L_0_5_0 + L_0_5_4 + y_CZ_0_0_4 + y_F_0_0_4 <= 2
CZ_F_Limit_0_0_5_0: L_0_0_0 + L_0_0_5 + y_CZ_0_0_5 + y_F_0_0_5 <= 2
CZ_F_Limit_0_0_5_1: L_0_1_0 + L_0_1_5 + y_CZ_0_0_5 + y_F_0_0_5 <= 2
CZ_F_Limit_0_0_5_2: L_0_2_0 + L_0_2_5 + y_CZ_0_0_5 + y_F_0_0_5 <= 2
CZ_F_Limit_0_0_5_3: L_0_3_0 + L_0_3_5 + y_CZ_0_0_5 + y_F_0_0_5 <= 2
CZ_F_Limit_0_0_5_4: L_0_4_0 + L_0_4_5 + y_CZ_0_0_5 + y_F_0_0_5 <= 2
CZ_F_Limit_0_0_5_5: L_0_5_0 + L_0_5_5 + y_CZ_0_0_5 + y_F_0_0_5 <= 2
CZ_F_Limit_0_1_0_0: L_0_0_0 + L_0_0_1 + y_CZ_0_1_0 + y_F_0_1_0 <= 2
CZ_F_Limit_0_1_0_1: L_0_1_0 + L_0_1_1 + y_CZ_0_1_0 + y_F_0_1_0 <= 2
CZ_F_Limit_0_1_0_2: L_0_2_0 + L_0_2_1 + y_CZ_0_1_0 + y_F_0_1_0 <= 2
CZ_F_Limit_0_1_0_3: L_0_3_0 + L_0_3_1 + y_CZ_0_1_0 + y_F_0_1_0 <= 2
CZ_F_Limit_0_1_0_4: L_0_4_0 + L_0_4_1 + y_CZ_0_1_0 + y_F_0_1_0 <= 2
CZ_F_Limit_0_1_0_5: L_0_5_0 + L_0_5_1 + y_CZ_0_1_0 + y_F_0_1_0 <= 2
CZ_F_Limit_0_1_1_0: 2 L_0_0_1 + y_CZ_0_1_1 + y_F_0_1_1 <= 2
CZ_F_Limit_0_1_1_1: 2 L_0_1_1 + y_CZ_0_1_1 + y_F_0_1_1 <= 2
CZ_F_Limit_0_1_1_2: 2 L_0_2_1 + y_CZ_0_1_1 + y_F_0_1_1 <= 2
CZ_F_Limit_0_1_1_3: 2 L_0_3_1 + y_CZ_0_1_1 + y_F_0_1_1 <= 2
CZ_F_Limit_0_1_1_4: 2 L_0_4_1 + y_CZ_0_1_1 + y_F_0_1_1 <= 2
CZ_F_Limit_0_1_1_5: 2 L_0_5_1 + y_CZ_0_1_1 + y_F_0_1_1 <= 2
CZ_F_Limit_0_1_2_0: L_0_0_1 + L_0_0_2 + y_CZ_0_1_2 + y_F_0_1_2 <= 2
CZ_F_Limit_0_1_2_1: L_0_1_1 + L_0_1_2 + y_CZ_0_1_2 + y_F_0_1_2 <= 2
CZ_F_Limit_0_1_2_2: L_0_2_1 + L_0_2_2 + y_CZ_0_1_2 + y_F_0_1_2 <= 2
CZ_F_Limit_0_1_2_3: L_0_3_1 + L_0_3_2 + y_CZ_0_1_2 + y_F_0_1_2 <= 2
CZ_F_Limit_0_1_2_4: L_0_4_1 + L_0_4_2 + y_CZ_0_1_2 + y_F_0_1_2 <= 2
CZ_F_Limit_0_1_2_5: L_0_5_1 + L_0_5_2 + y_CZ_0_1_2 + y_F_0_1_2 <= 2
CZ_F_Limit_0_1_3_0: L_0_0_1 + L_0_0_3 + y_CZ_0_1_3 + y_F_0_1_3 <= 2
CZ_F_Limit_0_1_3_1: L_0_1_1 + L_0_1_3 + y_CZ_0_1_3 + y_F_0_1_3 <= 2
CZ_F_Limit_0_1_3_2: L_0_2_1 + L_0_2_3 + y_CZ_0_1_3 + y_F_0_1_3 <= 2
CZ_F_Limit_0_1_3_3: L_0_3_1 + L_0_3_3 + y_CZ_0_1_3 + y_F_0_1_3 <= 2
CZ_F_Limit_0_1_3_4: L_0_4_1 + L_0_4_3 + y_CZ_0_1_3 + y_F_0_1_3 <= 2
CZ_F_Limit_0_1_3_5: L_0_5_1 + L_0_5_3 + y_CZ_0_1_3 + y_F_0_1_3 <= 2
CZ_F_Limit_0_1_4_0: L_0_0_1 + L_0_0_4 + y_CZ_0_1_4 + y_F_0_1_4 <= 2
CZ_F_Limit_0_1_4_1: L_0_1_1 + L_0_1_4 + y_CZ_0_1_4 + y_F_0_1_4 <= 2
CZ_F_Limit_0_1_4_2: L_0_2_1 + L_0_2_4 + y_CZ_0_1_4 + y_F_0_1_4 <= 2
CZ_F_Limit_0_1_4_3: L_0_3_1 + L_0_3_4 + y_CZ_0_1_4 + y_F_0_1_4 <= 2
CZ_F_Limit_0_1_4_4: L_0_4_1 + L_0_4_4 + y_CZ_0_1_4 + y_F_0_1_4 <= 2
CZ_F_Limit_0_1_4_5: L_0_5_1 + L_0_5_4 + y_CZ_0_1_4 + y_F_0_1_4 <= 2
CZ_F_Limit_0_1_5_0: L_0_0_1 + L_0_0_5 + y_CZ_0_1_5 + y_F_0_1_5 <= 2
CZ_F_Limit_0_1_5_1: L_0_1_1 + L_0_1_5 + y_CZ_0_1_5 + y_F_0_1_5 <= 2
CZ_F_Limit_0_1_5_2: L_0_2_1 + L_0_2_5 + y_CZ_0_1_5 + y_F_0_1_5 <= 2
CZ_F_Limit_0_1_5_3: L_0_3_1 + L_0_3_5 + y_CZ_0_1_5 + y_F_0_1_5 <= 2
CZ_F_Limit_0_1_5_4: L_0_4_1 + L_0_4_5 + y_CZ_0_1_5 + y_F_0_1_5 <= 2
CZ_F_Limit_0_1_5_5: L_0_5_1 + L_0_5_5 + y_CZ_0_1_5 + y_F_0_1_5 <= 2
CZ_F_Limit_0_2_0_0: L_0_0_0 + L_0_0_2 + y_CZ_0_2_0 + y_F_0_2_0 <= 2
CZ_F_Limit_0_2_0_1: L_0_1_0 + L_0_1_2 + y_CZ_0_2_0 + y_F_0_2_0 <= 2
CZ_F_Limit_0_2_0_2: L_0_2_0 + L_0_2_2 + y_CZ_0_2_0 + y_F_0_2_0 <= 2
CZ_F_Limit_0_2_0_3: L_0_3_0 + L_0_3_2 + y_CZ_0_2_0 + y_F_0_2_0 <= 2
CZ_F_Limit_0_2_0_4: L_0_4_0 + L_0_4_2 + y_CZ_0_2_0 + y_F_0_2_0 <= 2
CZ_F_Limit_0_2_0_5: L_0_5_0 + L_0_5_2 + y_CZ_0_2_0 + y_F_0_2_0 <= 2
CZ_F_Limit_0_2_1_0: L_0_0_1 + L_0_0_2 + y_CZ_0_2_1 + y_F_0_2_1 <= 2
CZ_F_Limit_0_2_1_1: L_0_1_1 + L_0_1_2 + y_CZ_0_2_1 + y_F_0_2_1 <= 2
CZ_F_Limit_0_2_1_2: L_0_2_1 + L_0_2_2 + y_CZ_0_2_1 + y_F_0_2_1 <= 2
CZ_F_Limit_0_2_1_3: L_0_3_1 + L_0_3_2 + y_CZ_0_2_1 + y_F_0_2_1 <= 2
CZ_F_Limit_0_2_1_4: L_0_4_1 + L_0_4_2 + y_CZ_0_2_1 + y_F_0_2_1 <= 2
CZ_F_Limit_0_2_1_5: L_0_5_1 + L_0_5_2 + y_CZ_0_2_1 + y_F_0_2_1 <= 2
CZ_F_Limit_0_2_2_0: 2 L_0_0_2 + y_CZ_0_2_2 + y_F_0_2_2 <= 2
CZ_F_Limit_0_2_2_1: 2 L_0_1_2 + y_CZ_0_2_2 + y_F_0_2_2 <= 2
CZ_F_Limit_0_2_2_2: 2 L_0_2_2 + y_CZ_0_2_2 + y_F_0_2_2 <= 2
CZ_F_Limit_0_2_2_3: 2 L_0_3_2 + y_CZ_0_2_2 + y_F_0_2_2 <= 2
CZ_F_Limit_0_2_2_4: 2 L_0_4_2 + y_CZ_0_2_2 + y_F_0_2_2 <= 2
CZ_F_Limit_0_2_2_5: 2 L_0_5_2 + y_CZ_0_2_2 + y_F_0_2_2 <= 2
CZ_F_Limit_0_2_3_0: L_0_0_2 + L_0_0_3 + y_CZ_0_2_3 + y_F_0_2_3 <= 2
CZ_F_Limit_0_2_3_1: L_0_1_2 + L_0_1_3 + y_CZ_0_2_3 + y_F_0_2_3 <= 2
CZ_F_Limit_0_2_3_2: L_0_2_2 + L_0_2_3 + y_CZ_0_2_3 + y_F_0_2_3 <= 2
CZ_F_Limit_0_2_3_3: L_0_3_2 + L_0_3_3 + y_CZ_0_2_3 + y_F_0_2_3 <= 2
CZ_F_Limit_0_2_3_4: L_0_4_2 + L_0_4_3 + y_CZ_0_2_3 + y_F_0_2_3 <= 2
CZ_F_Limit_0_2_3_5: L_0_5_2 + L_0_5_3 + y_CZ_0_2_3 + y_F_0_2_3 <= 2
CZ_F_Limit_0_2_4_0: L_0_0_2 + L_0_0_4 + y_CZ_0_2_4 + y_F_0_2_4 <= 2
CZ_F_Limit_0_2_4_1: L_0_1_2 + L_0_1_4 + y_CZ_0_2_4 + y_F_0_2_4 <= 2
CZ_F_Limit_0_2_4_2: L_0_2_2 + L_0_2_4 + y_CZ_0_2_4 + y_F_0_2_4 <= 2
CZ_F_Limit_0_2_4_3: L_0_3_2 + L_0_3_4 + y_CZ_0_2_4 + y_F_0_2_4 <= 2
CZ_F_Limit_0_2_4_4: L_0_4_2 + L_0_4_4 + y_CZ_0_2_4 + y_F_0_2_4 <= 2
CZ_F_Limit_0_2_4_5: L_0_5_2 + L_0_5_4 + y_CZ_0_2_4 + y_F_0_2_4 <= 2
CZ_F_Limit_0_2_5_0: L_0_0_2 + L_0_0_5 + y_CZ_0_2_5 + y_F_0_2_5 <= 2
CZ_F_Limit_0_2_5_1: L_0_1_2 + L_0_1_5 + y_CZ_0_2_5 + y_F_0_2_5 <= 2
CZ_F_Limit_0_2_5_2: L_0_2_2 + L_0_2_5 + y_CZ_0_2_5 + y_F_0_2_5 <= 2
CZ_F_Limit_0_2_5_3: L_0_3_2 + L_0_3_5 + y_CZ_0_2_5 + y_F_0_2_5 <= 2
CZ_F_Limit_0_2_5_4: L_0_4_2 + L_0_4_5 + y_CZ_0_2_5 + y_F_0_2_5 <= 2
CZ_F_Limit_0_2_5_5: L_0_5_2 + L_0_5_5 + y_CZ_0_2_5 + y_F_0_2_5 <= 2
CZ_F_Limit_0_3_0_0: L_0_0_0 + L_0_0_3 + y_CZ_0_3_0 + y_F_0_3_0 <= 2
CZ_F_Limit_0_3_0_1: L_0_1_0 + L_0_1_3 + y_CZ_0_3_0 + y_F_0_3_0 <= 2
CZ_F_Limit_0_3_0_2: L_0_2_0 + L_0_2_3 + y_CZ_0_3_0 + y_F_0_3_0 <= 2
CZ_F_Limit_0_3_0_3: L_0_3_0 + L_0_3_3 + y_CZ_0_3_0 + y_F_0_3_0 <= 2
CZ_F_Limit_0_3_0_4: L_0_4_0 + L_0_4_3 + y_CZ_0_3_0 + y_F_0_3_0 <= 2
CZ_F_Limit_0_3_0_5: L_0_5_0 + L_0_5_3 + y_CZ_0_3_0 + y_F_0_3_0 <= 2
CZ_F_Limit_0_3_1_0: L_0_0_1 + L_0_0_3 + y_CZ_0_3_1 + y_F_0_3_1 <= 2
CZ_F_Limit_0_3_1_1: L_0_1_1 + L_0_1_3 + y_CZ_0_3_1 + y_F_0_3_1 <= 2
CZ_F_Limit_0_3_1_2: L_0_2_1 + L_0_2_3 + y_CZ_0_3_1 + y_F_0_3_1 <= 2
CZ_F_Limit_0_3_1_3: L_0_3_1 + L_0_3_3 + y_CZ_0_3_1 + y_F_0_3_1 <= 2
CZ_F_Limit_0_3_1_4: L_0_4_1 + L_0_4_3 + y_CZ_0_3_1 + y_F_0_3_1 <= 2
CZ_F_Limit_0_3_1_5: L_0_5_1 + L_0_5_3 + y_CZ_0_3_1 + y_F_0_3_1 <= 2
CZ_F_Limit_0_3_2_0: L_0_0_2 + L_0_0_3 + y_CZ_0_3_2 + y_F_0_3_2 <= 2
CZ_F_Limit_0_3_2_1: L_0_1_2 + L_0_1_3 + y_CZ_0_3_2 + y_F_0_3_2 <= 2
CZ_F_Limit_0_3_2_2: L_0_2_2 + L_0_2_3 + y_CZ_0_3_2 + y_F_0_3_2 <= 2
CZ_F_Limit_0_3_2_3: L_0_3_2 + L_0_3_3 + y_CZ_0_3_2 + y_F_0_3_2 <= 2
CZ_F_Limit_0_3_2_4: L_0_4_2 + L_0_4_3 + y_CZ_0_3_2 + y_F_0_3_2 <= 2
CZ_F_Limit_0_3_2_5: L_0_5_2 + L_0_5_3 + y_CZ_0_3_2 + y_F_0_3_2 <= 2
CZ_F_Limit_0_3_3_0: 2 L_0_0_3 + y_CZ_0_3_3 + y_F_0_3_3 <= 2
CZ_F_Limit_0_3_3_1: 2 L_0_1_3 + y_CZ_0_3_3 + y_F_0_3_3 <= 2
CZ_F_Limit_0_3_3_2: 2 L_0_2_3 + y_CZ_0_3_3 + y_F_0_3_3 <= 2
CZ_F_Limit_0_3_3_3: 2 L_0_3_3 + y_CZ_0_3_3 + y_F_0_3_3 <= 2
CZ_F_Limit_0_3_3_4: 2 L_0_4_3 + y_CZ_0_3_3 + y_F_0_3_3 <= 2
CZ_F_Limit_0_3_3_5: 2 L_0_5_3 + y_CZ_0_3_3 + y_F_0_3_3 <= 2
CZ_F_Limit_0_3_4_0: L_0_0_3 + L_0_0_4 + y_CZ_0_3_4 + y_F_0_3_4 <= 2
CZ_F_Limit_0_3_4_1: L_0_1_3 + L_0_1_4 + y_CZ_0_3_4 + y_F_0_3_4 <= 2
CZ_F_Limit_0_3_4_2: L_0_2_3 + L_0_2_4 + y_CZ_0_3_4 + y_F_0_3_4 <= 2
CZ_F_Limit_0_3_4_3: L_0_3_3 + L_0_3_4 + y_CZ_0_3_4 + y_F_0_3_4 <= 2
CZ_F_Limit_0_3_4_4: L_0_4_3 + L_0_4_4 + y_CZ_0_3_4 + y_F_0_3_4 <= 2
CZ_F_Limit_0_3_4_5: L_0_5_3 + L_0_5_4 + y_CZ_0_3_4 + y_F_0_3_4 <= 2
CZ_F_Limit_0_3_5_0: L_0_0_3 + L_0_0_5 + y_CZ_0_3_5 + y_F_0_3_5 <= 2
CZ_F_Limit_0_3_5_1: L_0_1_3 + L_0_1_5 + y_CZ_0_3_5 + y_F_0_3_5 <= 2
CZ_F_Limit_0_3_5_2: L_0_2_3 + L_0_2_5 + y_CZ_0_3_5 + y_F_0_3_5 <= 2
CZ_F_Limit_0_3_5_3: L_0_3_3 + L_0_3_5 + y_CZ_0_3_5 + y_F_0_3_5 <= 2
CZ_F_Limit_0_3_5_4: L_0_4_3 + L_0_4_5 + y_CZ_0_3_5 + y_F_0_3_5 <= 2
CZ_F_Limit_0_3_5_5: L_0_5_3 + L_0_5_5 + y_CZ_0_3_5 + y_F_0_3_5 <= 2
CZ_F_Limit_0_4_0_0: L_0_0_0 + L_0_0_4 + y_CZ_0_4_0 + y_F_0_4_0 <= 2
CZ_F_Limit_0_4_0_1: L_0_1_0 + L_0_1_4 + y_CZ_0_4_0 + y_F_0_4_0 <= 2
CZ_F_Limit_0_4_0_2: L_0_2_0 + L_0_2_4 + y_CZ_0_4_0 + y_F_0_4_0 <= 2
CZ_F_Limit_0_4_0_3: L_0_3_0 + L_0_3_4 + y_CZ_0_4_0 + y_F_0_4_0 <= 2
CZ_F_Limit_0_4_0_4: L_0_4_0 + L_0_4_4 + y_CZ_0_4_0 + y_F_0_4_0 <= 2
CZ_F_Limit_0_4_0_5: L_0_5_0 + L_0_5_4 + y_CZ_0_4_0 + y_F_0_4_0 <= 2
CZ_F_Limit_0_4_1_0: L_0_0_1 + L_0_0_4 + y_CZ_0_4_1 + y_F_0_4_1 <= 2
CZ_F_Limit_0_4_1_1: L_0_1_1 + L_0_1_4 + y_CZ_0_4_1 + y_F_0_4_1 <= 2
CZ_F_Limit_0_4_1_2: L_0_2_1 + L_0_2_4 + y_CZ_0_4_1 + y_F_0_4_1 <= 2
CZ_F_Limit_0_4_1_3: L_0_3_1 + L_0_3_4 + y_CZ_0_4_1 + y_F_0_4_1 <= 2
CZ_F_Limit_0_4_1_4: L_0_4_1 + L_0_4_4 + y_CZ_0_4_1 + y_F_0_4_1 <= 2
CZ_F_Limit_0_4_1_5: L_0_5_1 + L_0_5_4 + y_CZ_0_4_1 + y_F_0_4_1 <= 2
CZ_F_Limit_0_4_2_0: L_0_0_2 + L_0_0_4 + y_CZ_0_4_2 + y_F_0_4_2 <= 2
CZ_F_Limit_0_4_2_1: L_0_1_2 + L_0_1_4 + y_CZ_0_4_2 + y_F_0_4_2 <= 2
CZ_F_Limit_0_4_2_2: L_0_2_2 + L_0_2_4 + y_CZ_0_4_2 + y_F_0_4_2 <= 2
CZ_F_Limit_0_4_2_3: L_0_3_2 + L_0_3_4 + y_CZ_0_4_2 + y_F_0_4_2 <= 2
CZ_F_Limit_0_4_2_4: L_0_4_2 + L_0_4_4 + y_CZ_0_4_2 + y_F_0_4_2 <= 2
CZ_F_Limit_0_4_2_5: L_0_5_2 + L_0_5_4 + y_CZ_0_4_2 + y_F_0_4_2 <= 2
CZ_F_Limit_0_4_3_0: L_0_0_3 + L_0_0_4 + y_CZ_0_4_3 + y_F_0_4_3 <= 2
CZ_F_Limit_0_4_3_1: L_0_1_3 + L_0_1_4 + y_CZ_0_4_3 + y_F_0_4_3 <= 2
CZ_F_Limit_0_4_3_2: L_0_2_3 + L_0_2_4 + y_CZ_0_4_3 + y_F_0_4_3 <= 2
CZ_F_Limit_0_4_3_3: L_0_3_3 + L_0_3_4 + y_CZ_0_4_3 + y_F_0_4_3 <= 2
CZ_F_Limit_0_4_3_4: L_0_4_3 + L_0_4_4 + y_CZ_0_4_3 + y_F_0_4_3 <= 2
CZ_F_Limit_0_4_3_5: L_0_5_3 + L_0_5_4 + y_CZ_0_4_3 + y_F_0_4_3 <= 2
CZ_F_Limit_0_4_4_0: 2 L_0_0_4 + y_CZ_0_4_4 + y_F_0_4_4 <= 2
CZ_F_Limit_0_4_4_1: 2 L_0_1_4 + y_CZ_0_4_4 + y_F_0_4_4 <= 2
CZ_F_Limit_0_4_4_2: 2 L_0_2_4 + y_CZ_0_4_4 + y_F_0_4_4 <= 2
CZ_F_Limit_0_4_4_3: 2 L_0_3_4 + y_CZ_0_4_4 + y_F_0_4_4 <= 2
CZ_F_Limit_0_4_4_4: 2 L_0_4_4 + y_CZ_0_4_4 + y_F_0_4_4 <= 2
CZ_F_Limit_0_4_4_5: 2 L_0_5_4 + y_CZ_0_4_4 + y_F_0_4_4 <= 2
CZ_F_Limit_0_4_5_0: L_0_0_4 + L_0_0_5 + y_CZ_0_4_5 + y_F_0_4_5 <= 2
CZ_F_Limit_0_4_5_1: L_0_1_4 + L_0_1_5 + y_CZ_0_4_5 + y_F_0_4_5 <= 2
CZ_F_Limit_0_4_5_2: L_0_2_4 + L_0_2_5 + y_CZ_0_4_5 + y_F_0_4_5 <= 2
CZ_F_Limit_0_4_5_3: L_0_3_4 + L_0_3_5 + y_CZ_0_4_5 + y_F_0_4_5 <= 2
CZ_F_Limit_0_4_5_4: L_0_4_4 + L_0_4_5 + y_CZ_0_4_5 + y_F_0_4_5 <= 2
CZ_F_Limit_0_4_5_5: L_0_5_4 + L_0_5_5 + y_CZ_0_4_5 + y_F_0_4_5 <= 2
CZ_F_Limit_0_5_0_0: L_0_0_0 + L_0_0_5 + y_CZ_0_5_0 + y_F_0_5_0 <= 2
CZ_F_Limit_0_5_0_1: L_0_1_0 + L_0_1_5 + y_CZ_0_5_0 + y_F_0_5_0 <= 2
CZ_F_Limit_0_5_0_2: L_0_2_0 + L_0_2_5 + y_CZ_0_5_0 + y_F_0_5_0 <= 2
CZ_F_Limit_0_5_0_3: L_0_3_0 + L_0_3_5 + y_CZ_0_5_0 + y_F_0_5_0 <= 2
CZ_F_Limit_0_5_0_4: L_0_4_0 + L_0_4_5 + y_CZ_0_5_0 + y_F_0_5_0 <= 2
CZ_F_Limit_0_5_0_5: L_0_5_0 + L_0_5_5 + y_CZ_0_5_0 + y_F_0_5_0 <= 2
CZ_F_Limit_0_5_1_0: L_0_0_1 + L_0_0_5 + y_CZ_0_5_1 + y_F_0_5_1 <= 2
CZ_F_Limit_0_5_1_1: L_0_1_1 + L_0_1_5 + y_CZ_0_5_1 + y_F_0_5_1 <= 2
CZ_F_Limit_0_5_1_2: L_0_2_1 + L_0_2_5 + y_CZ_0_5_1 + y_F_0_5_1 <= 2
CZ_F_Limit_0_5_1_3: L_0_3_1 + L_0_3_5 + y_CZ_0_5_1 + y_F_0_5_1 <= 2
CZ_F_Limit_0_5_1_4: L_0_4_1 + L_0_4_5 + y_CZ_0_5_1 + y_F_0_5_1 <= 2
CZ_F_Limit_0_5_1_5: L_0_5_1 + L_0_5_5 + y_CZ_0_5_1 + y_F_0_5_1 <= 2
CZ_F_Limit_0_5_2_0: L_0_0_2 + L_0_0_5 + y_CZ_0_5_2 + y_F_0_5_2 <= 2
CZ_F_Limit_0_5_2_1: L_0_1_2 + L_0_1_5 + y_CZ_0_5_2 + y_F_0_5_2 <= 2
CZ_F_Limit_0_5_2_2: L_0_2_2 + L_0_2_5 + y_CZ_0_5_2 + y_F_0_5_2 <= 2
CZ_F_Limit_0_5_2_3: L_0_3_2 + L_0_3_5 + y_CZ_0_5_2 + y_F_0_5_2 <= 2
CZ_F_Limit_0_5_2_4: L_0_4_2 + L_0_4_5 + y_CZ_0_5_2 + y_F_0_5_2 <= 2
CZ_F_Limit_0_5_2_5: L_0_5_2 + L_0_5_5 + y_CZ_0_5_2 + y_F_0_5_2 <= 2
CZ_F_Limit_0_5_3_0: L_0_0_3 + L_0_0_5 + y_CZ_0_5_3 + y_F_0_5_3 <= 2
CZ_F_Limit_0_5_3_1: L_0_1_3 + L_0_1_5 + y_CZ_0_5_3 + y_F_0_5_3 <= 2
CZ_F_Limit_0_5_3_2: L_0_2_3 + L_0_2_5 + y_CZ_0_5_3 + y_F_0_5_3 <= 2
CZ_F_Limit_0_5_3_3: L_0_3_3 + L_0_3_5 + y_CZ_0_5_3 + y_F_0_5_3 <= 2
CZ_F_Limit_0_5_3_4: L_0_4_3 + L_0_4_5 + y_CZ_0_5_3 + y_F_0_5_3 <= 2
CZ_F_Limit_0_5_3_5: L_0_5_3 + L_0_5_5 + y_CZ_0_5_3 + y_F_0_5_3 <= 2
CZ_F_Limit_0_5_4_0: L_0_0_4 + L_0_0_5 + y_CZ_0_5_4 + y_F_0_5_4 <= 2
CZ_F_Limit_0_5_4_1: L_0_1_4 + L_0_1_5 + y_CZ_0_5_4 + y_F_0_5_4 <= 2
CZ_F_Limit_0_5_4_2: L_0_2_4 + L_0_2_5 + y_CZ_0_5_4 + y_F_0_5_4 <= 2
CZ_F_Limit_0_5_4_3: L_0_3_4 + L_0_3_5 + y_CZ_0_5_4 + y_F_0_5_4 <= 2
CZ_F_Limit_0_5_4_4: L_0_4_4 + L_0_4_5 + y_CZ_0_5_4 + y_F_0_5_4 <= 2
CZ_F_Limit_0_5_4_5: L_0_5_4 + L_0_5_5 + y_CZ_0_5_4 + y_F_0_5_4 <= 2
CZ_F_Limit_0_5_5_0: 2 L_0_0_5 + y_CZ_0_5_5 + y_F_0_5_5 <= 2
CZ_F_Limit_0_5_5_1: 2 L_0_1_5 + y_CZ_0_5_5 + y_F_0_5_5 <= 2
CZ_F_Limit_0_5_5_2: 2 L_0_2_5 + y_CZ_0_5_5 + y_F_0_5_5 <= 2
CZ_F_Limit_0_5_5_3: 2 L_0_3_5 + y_CZ_0_5_5 + y_F_0_5_5 <= 2
CZ_F_Limit_0_5_5_4: 2 L_0_4_5 + y_CZ_0_5_5 + y_F_0_5_5 <= 2
CZ_F_Limit_0_5_5_5: 2 L_0_5_5 + y_CZ_0_5_5 + y_F_0_5_5 <= 2
CZ_F_Limit_1_0_0_0: 2 L_1_0_0 + y_CZ_1_0_0 + y_F_1_0_0 <= 2
CZ_F_Limit_1_0_0_1: 2 L_1_1_0 + y_CZ_1_0_0 + y_F_1_0_0 <= 2
CZ_F_Limit_1_0_0_2: 2 L_1_2_0 + y_CZ_1_0_0 + y_F_1_0_0 <= 2
CZ_F_Limit_1_0_0_3: 2 L_1_3_0 + y_CZ_1_0_0 + y_F_1_0_0 <= 2
CZ_F_Limit_1_0_0_4: 2 L_1_4_0 + y_CZ_1_0_0 + y_F_1_0_0 <= 2
CZ_F_Limit_1_0_0_5: 2 L_1_5_0 + y_CZ_1_0_0 + y_F_1_0_0 <= 2
CZ_F_Limit_1_0_1_0: L_1_0_0 + L_1_0_1 + y_CZ_1_0_1 + y_F_1_0_1 <= 2
CZ_F_Limit_1_0_1_1: L_1_1_0 + L_1_1_1 + y_CZ_1_0_1 + y_F_1_0_1 <= 2
CZ_F_Limit_1_0_1_2: L_1_2_0 + L_1_2_1 + y_CZ_1_0_1 + y_F_1_0_1 <= 2
CZ_F_Limit_1_0_1_3: L_1_3_0 + L_1_3_1 + y_CZ_1_0_1 + y_F_1_0_1 <= 2
CZ_F_Limit_1_0_1_4: L_1_4_0 + L_1_4_1 + y_CZ_1_0_1 + y_F_1_0_1 <= 2
CZ_F_Limit_1_0_1_5: L_1_5_0 + L_1_5_1 + y_CZ_1_0_1 + y_F_1_0_1 <= 2
CZ_F_Limit_1_0_2_0: L_1_0_0 + L_1_0_2 + y_CZ_1_0_2 + y_F_1_0_2 <= 2
CZ_F_Limit_1_0_2_1: L_1_1_0 + L_1_1_2 + y_CZ_1_0_2 + y_F_1_0_2 <= 2
CZ_F_Limit_1_0_2_2: L_1_2_0 + L_1_2_2 + y_CZ_1_0_2 + y_F_1_0_2 <= 2
CZ_F_Limit_1_0_2_3: L_1_3_0 + L_1_3_2 + y_CZ_1_0_2 + y_F_1_0_2 <= 2
CZ_F_Limit_1_0_2_4: L_1_4_0 + L_1_4_2 + y_CZ_1_0_2 + y_F_1_0_2 <= 2
CZ_F_Limit_1_0_2_5: L_1_5_0 + L_1_5_2 + y_CZ_1_0_2 + y_F_1_0_2 <= 2
CZ_F_Limit_1_0_3_0: L_1_0_0 + L_1_0_3 + y_CZ_1_0_3 + y_F_1_0_3 <= 2
CZ_F_Limit_1_0_3_1: L_1_1_0 + L_1_1_3 + y_CZ_1_0_3 + y_F_1_0_3 <= 2
CZ_F_Limit_1_0_3_2: L_1_2_0 + L_1_2_3 + y_CZ_1_0_3 + y_F_1_0_3 <= 2
CZ_F_Limit_1_0_3_3: L_1_3_0 + L_1_3_3 + y_CZ_1_0_3 + y_F_1_0_3 <= 2
CZ_F_Limit_1_0_3_4: L_1_4_0 + L_1_4_3 + y_CZ_1_0_3 + y_F_1_0_3 <= 2
CZ_F_Limit_1_0_3_5: L_1_5_0 + L_1_5_3 + y_CZ_1_0_3 + y_F_1_0_3 <= 2
CZ_F_Limit_1_0_4_0: L_1_0_0 + L_1_0_4 + y_CZ_1_0_4 + y_F_1_0_4 <= 2
CZ_F_Limit_1_0_4_1: L_1_1_0 + L_1_1_4 + y_CZ_1_0_4 + y_F_1_0_4 <= 2
CZ_F_Limit_1_0_4_2: L_1_2_0 + L_1_2_4 + y_CZ_1_0_4 + y_F_1_0_4 <= 2
CZ_F_Limit_1_0_4_3: L_1_3_0 + L_1_3_4 + y_CZ_1_0_4 + y_F_1_0_4 <= 2
CZ_F_Limit_1_0_4_4: L_1_4_0 + L_1_4_4 + y_CZ_1_0_4 + y_F_1_0_4 <= 2
CZ_F_Limit_1_0_4_5: L_1_5_0 + L_1_5_4 + y_CZ_1_0_4 + y_F_1_0_4 <= 2
CZ_F_Limit_1_0_5_0: L_1_0_0 + L_1_0_5 + y_CZ_1_0_5 + y_F_1_0_5 <= 2
CZ_F_Limit_1_0_5_1: L_1_1_0 + L_1_1_5 + y_CZ_1_0_5 + y_F_1_0_5 <= 2
CZ_F_Limit_1_0_5_2: L_1_2_0 + L_1_2_5 + y_CZ_1_0_5 + y_F_1_0_5 <= 2
CZ_F_Limit_1_0_5_3: L_1_3_0 + L_1_3_5 + y_CZ_1_0_5 + y_F_1_0_5 <= 2
CZ_F_Limit_1_0_5_4: L_1_4_0 + L_1_4_5 + y_CZ_1_0_5 + y_F_1_0_5 <= 2
CZ_F_Limit_1_0_5_5: L_1_5_0 + L_1_5_5 + y_CZ_1_0_5 + y_F_1_0_5 <= 2
CZ_F_Limit_1_1_0_0: L_1_0_0 + L_1_0_1 + y_CZ_1_1_0 + y_F_1_1_0 <= 2
CZ_F_Limit_1_1_0_1: L_1_1_0 + L_1_1_1 + y_CZ_1_1_0 + y_F_1_1_0 <= 2
CZ_F_Limit_1_1_0_2: L_1_2_0 + L_1_2_1 + y_CZ_1_1_0 + y_F_1_1_0 <= 2
CZ_F_Limit_1_1_0_3: L_1_3_0 + L_1_3_1 + y_CZ_1_1_0 + y_F_1_1_0 <= 2
CZ_F_Limit_1_1_0_4: L_1_4_0 + L_1_4_1 + y_CZ_1_1_0 + y_F_1_1_0 <= 2
CZ_F_Limit_1_1_0_5: L_1_5_0 + L_1_5_1 + y_CZ_1_1_0 + y_F_1_1_0 <= 2
CZ_F_Limit_1_1_1_0: 2 L_1_0_1 + y_CZ_1_1_1 + y_F_1_1_1 <= 2
CZ_F_Limit_1_1_1_1: 2 L_1_1_1 + y_CZ_1_1_1 + y_F_1_1_1 <= 2
CZ_F_Limit_1_1_1_2: 2 L_1_2_1 + y_CZ_1_1_1 + y_F_1_1_1 <= 2
CZ_F_Limit_1_1_1_3: 2 L_1_3_1 + y_CZ_1_1_1 + y_F_1_1_1 <= 2
CZ_F_Limit_1_1_1_4: 2 L_1_4_1 + y_CZ_1_1_1 + y_F_1_1_1 <= 2
CZ_F_Limit_1_1_1_5: 2 L_1_5_1 + y_CZ_1_1_1 + y_F_1_1_1 <= 2
CZ_F_Limit_1_1_2_0: L_1_0_1 + L_1_0_2 + y_CZ_1_1_2 + y_F_1_1_2 <= 2
CZ_F_Limit_1_1_2_1: L_1_1_1 + L_1_1_2 + y_CZ_1_1_2 + y_F_1_1_2 <= 2
CZ_F_Limit_1_1_2_2: L_1_2_1 + L_1_2_2 + y_CZ_1_1_2 + y_F_1_1_2 <= 2
CZ_F_Limit_1_1_2_3: L_1_3_1 + L_1_3_2 + y_CZ_1_1_2 + y_F_1_1_2 <= 2
CZ_F_Limit_1_1_2_4: L_1_4_1 + L_1_4_2 + y_CZ_1_1_2 + y_F_1_1_2 <= 2
CZ_F_Limit_1_1_2_5: L_1_5_1 + L_1_5_2 + y_CZ_1_1_2 + y_F_1_1_2 <= 2
CZ_F_Limit_1_1_3_0: L_1_0_1 + L_1_0_3 + y_CZ_1_1_3 + y_F_1_1_3 <= 2
CZ_F_Limit_1_1_3_1: L_1_1_1 + L_1_1_3 + y_CZ_1_1_3 + y_F_1_1_3 <= 2
CZ_F_Limit_1_1_3_2: L_1_2_1 + L_1_2_3 + y_CZ_1_1_3 + y_F_1_1_3 <= 2
CZ_F_Limit_1_1_3_3: L_1_3_1 + L_1_3_3 + y_CZ_1_1_3 + y_F_1_1_3 <= 2
CZ_F_Limit_1_1_3_4: L_1_4_1 + L_1_4_3 + y_CZ_1_1_3 + y_F_1_1_3 <= 2
CZ_F_Limit_1_1_3_5: L_1_5_1 + L_1_5_3 + y_CZ_1_1_3 + y_F_1_1_3 <= 2
CZ_F_Limit_1_1_4_0: L_1_0_1 + L_1_0_4 + y_CZ_1_1_4 + y_F_1_1_4 <= 2
CZ_F_Limit_1_1_4_1: L_1_1_1 + L_1_1_4 + y_CZ_1_1_4 + y_F_1_1_4 <= 2
CZ_F_Limit_1_1_4_2: L_1_2_1 + L_1_2_4 + y_CZ_1_1_4 + y_F_1_1_4 <= 2
CZ_F_Limit_1_1_4_3: L_1_3_1 + L_1_3_4 + y_CZ_1_1_4 + y_F_1_1_4 <= 2
CZ_F_Limit_1_1_4_4: L_1_4_1 + L_1_4_4 + y_CZ_1_1_4 + y_F_1_1_4 <= 2
CZ_F_Limit_1_1_4_5: L_1_5_1 + L_1_5_4 + y_CZ_1_1_4 + y_F_1_1_4 <= 2
CZ_F_Limit_1_1_5_0: L_1_0_1 + L_1_0_5 + y_CZ_1_1_5 + y_F_1_1_5 <= 2
CZ_F_Limit_1_1_5_1: L_1_1_1 + L_1_1_5 + y_CZ_1_1_5 + y_F_1_1_5 <= 2
CZ_F_Limit_1_1_5_2: L_1_2_1 + L_1_2_5 + y_CZ_1_1_5 + y_F_1_1_5 <= 2
CZ_F_Limit_1_1_5_3: L_1_3_1 + L_1_3_5 + y_CZ_1_1_5 + y_F_1_1_5 <= 2
CZ_F_Limit_1_1_5_4: L_1_4_1 + L_1_4_5 + y_CZ_1_1_5 + y_F_1_1_5 <= 2
CZ_F_Limit_1_1_5_5: L_1_5_1 + L_1_5_5 + y_CZ_1_1_5 + y_F_1_1_5 <= 2
CZ_F_Limit_1_2_0_0: L_1_0_0 + L_1_0_2 + y_CZ_1_2_0 + y_F_1_2_0 <= 2
CZ_F_Limit_1_2_0_1: L_1_1_0 + L_1_1_2 + y_CZ_1_2_0 + y_F_1_2_0 <= 2
CZ_F_Limit_1_2_0_2: L_1_2_0 + L_1_2_2 + y_CZ_1_2_0 + y_F_1_2_0 <= 2
CZ_F_Limit_1_2_0_3: L_1_3_0 + L_1_3_2 + y_CZ_1_2_0 + y_F_1_2_0 <= 2
CZ_F_Limit_1_2_0_4: L_1_4_0 + L_1_4_2 + y_CZ_1_2_0 + y_F_1_2_0 <= 2
CZ_F_Limit_1_2_0_5: L_1_5_0 + L_1_5_2 + y_CZ_1_2_0 + y_F_1_2_0 <= 2
CZ_F_Limit_1_2_1_0: L_1_0_1 + L_1_0_2 + y_CZ_1_2_1 + y_F_1_2_1 <= 2
CZ_F_Limit_1_2_1_1: L_1_1_1 + L_1_1_2 + y_CZ_1_2_1 + y_F_1_2_1 <= 2
CZ_F_Limit_1_2_1_2: L_1_2_1 + L_1_2_2 + y_CZ_1_2_1 + y_F_1_2_1 <= 2
CZ_F_Limit_1_2_1_3: L_1_3_1 + L_1_3_2 + y_CZ_1_2_1 + y_F_1_2_1 <= 2
CZ_F_Limit_1_2_1_4: L_1_4_1 + L_1_4_2 + y_CZ_1_2_1 + y_F_1_2_1 <= 2
CZ_F_Limit_1_2_1_5: L_1_5_1 + L_1_5_2 + y_CZ_1_2_1 + y_F_1_2_1 <= 2
CZ_F_Limit_1_2_2_0: 2 L_1_0_2 + y_CZ_1_2_2 + y_F_1_2_2 <= 2
CZ_F_Limit_1_2_2_1: 2 L_1_1_2 + y_CZ_1_2_2 + y_F_1_2_2 <= 2
CZ_F_Limit_1_2_2_2: 2 L_1_2_2 + y_CZ_1_2_2 + y_F_1_2_2 <= 2
CZ_F_Limit_1_2_2_3: 2 L_1_3_2 + y_CZ_1_2_2 + y_F_1_2_2 <= 2
CZ_F_Limit_1_2_2_4: 2 L_1_4_2 + y_CZ_1_2_2 + y_F_1_2_2 <= 2
CZ_F_Limit_1_2_2_5: 2 L_1_5_2 + y_CZ_1_2_2 + y_F_1_2_2 <= 2
CZ_F_Limit_1_2_3_0: L_1_0_2 + L_1_0_3 + y_CZ_1_2_3 + y_F_1_2_3 <= 2
CZ_F_Limit_1_2_3_1: L_1_1_2 + L_1_1_3 + y_CZ_1_2_3 + y_F_1_2_3 <= 2
CZ_F_Limit_1_2_3_2: L_1_2_2 + L_1_2_3 + y_CZ_1_2_3 + y_F_1_2_3 <= 2
CZ_F_Limit_1_2_3_3: L_1_3_2 + L_1_3_3 + y_CZ_1_2_3 + y_F_1_2_3 <= 2
CZ_F_Limit_1_2_3_4: L_1_4_2 + L_1_4_3 + y_CZ_1_2_3 + y_F_1_2_3 <= 2
CZ_F_Limit_1_2_3_5: L_1_5_2 + L_1_5_3 + y_CZ_1_2_3 + y_F_1_2_3 <= 2
CZ_F_Limit_1_2_4_0: L_1_0_2 + L_1_0_4 + y_CZ_1_2_4 + y_F_1_2_4 <= 2
CZ_F_Limit_1_2_4_1: L_1_1_2 + L_1_1_4 + y_CZ_1_2_4 + y_F_1_2_4 <= 2
CZ_F_Limit_1_2_4_2: L_1_2_2 + L_1_2_4 + y_CZ_1_2_4 + y_F_1_2_4 <= 2
CZ_F_Limit_1_2_4_3: L_1_3_2 + L_1_3_4 + y_CZ_1_2_4 + y_F_1_2_4 <= 2
CZ_F_Limit_1_2_4_4: L_1_4_2 + L_1_4_4 + y_CZ_1_2_4 + y_F_1_2_4 <= 2
CZ_F_Limit_1_2_4_5: L_1_5_2 + L_1_5_4 + y_CZ_1_2_4 + y_F_1_2_4 <= 2
CZ_F_Limit_1_2_5_0: L_1_0_2 + L_1_0_5 + y_CZ_1_2_5 + y_F_1_2_5 <= 2
CZ_F_Limit_1_2_5_1: L_1_1_2 + L_1_1_5 + y_CZ_1_2_5 + y_F_1_2_5 <= 2
CZ_F_Limit_1_2_5_2: L_1_2_2 + L_1_2_5 + y_CZ_1_2_5 + y_F_1_2_5 <= 2
CZ_F_Limit_1_2_5_3: L_1_3_2 + L_1_3_5 + y_CZ_1_2_5 + y_F_1_2_5 <= 2
CZ_F_Limit_1_2_5_4: L_1_4_2 + L_1_4_5 + y_CZ_1_2_5 + y_F_1_2_5 <= 2
CZ_F_Limit_1_2_5_5: L_1_5_2 + L_1_5_5 + y_CZ_1_2_5 + y_F_1_2_5 <= 2
CZ_F_Limit_1_3_0_0: L_1_0_0 + L_1_0_3 + y_CZ_1_3_0 + y_F_1_3_0 <= 2
CZ_F_Limit_1_3_0_1: L_1_1_0 + L_1_1_3 + y_CZ_1_3_0 + y_F_1_3_0 <= 2
CZ_F_Limit_1_3_0_2: L_1_2_0 + L_1_2_3 + y_CZ_1_3_0 + y_F_1_3_0 <= 2
CZ_F_Limit_1_3_0_3: L_1_3_0 + L_1_3_3 + y_CZ_1_3_0 + y_F_1_3_0 <= 2
CZ_F_Limit_1_3_0_4: L_1_4_0 + L_1_4_3 + y_CZ_1_3_0 + y_F_1_3_0 <= 2
CZ_F_Limit_1_3_0_5: L_1_5_0 + L_1_5_3 + y_CZ_1_3_0 + y_F_1_3_0 <= 2
CZ_F_Limit_1_3_1_0: L_1_0_1 + L_1_0_3 + y_CZ_1_3_1 + y_F_1_3_1 <= 2
CZ_F_Limit_1_3_1_1: L_1_1_1 + L_1_1_3 + y_CZ_1_3_1 + y_F_1_3_1 <= 2
CZ_F_Limit_1_3_1_2: L_1_2_1 + L_1_2_3 + y_CZ_1_3_1 + y_F_1_3_1 <= 2
CZ_F_Limit_1_3_1_3: L_1_3_1 + L_1_3_3 + y_CZ_1_3_1 + y_F_1_3_1 <= 2
CZ_F_Limit_1_3_1_4: L_1_4_1 + L_1_4_3 + y_CZ_1_3_1 + y_F_1_3_1 <= 2
CZ_F_Limit_1_3_1_5: L_1_5_1 + L_1_5_3 + y_CZ_1_3_1 + y_F_1_3_1 <= 2
CZ_F_Limit_1_3_2_0: L_1_0_2 + L_1_0_3 + y_CZ_1_3_2 + y_F_1_3_2 <= 2
CZ_F_Limit_1_3_2_1: L_1_1_2 + L_1_1_3 + y_CZ_1_3_2 + y_F_1_3_2 <= 2
CZ_F_Limit_1_3_2_2: L_1_2_2 + L_1_2_3 + y_CZ_1_3_2 + y_F_1_3_2 <= 2
CZ_F_Limit_1_3_2_3: L_1_3_2 + L_1_3_3 + y_CZ_1_3_2 + y_F_1_3_2 <= 2
CZ_F_Limit_1_3_2_4: L_1_4_2 + L_1_4_3 + y_CZ_1_3_2 + y_F_1_3_2 <= 2
CZ_F_Limit_1_3_2_5: L_1_5_2 + L_1_5_3 + y_CZ_1_3_2 + y_F_1_3_2 <= 2
CZ_F_Limit_1_3_3_0: 2 L_1_0_3 + y_CZ_1_3_3 + y_F_1_3_3 <= 2
CZ_F_Limit_1_3_3_1: 2 L_1_1_3 + y_CZ_1_3_3 + y_F_1_3_3 <= 2
CZ_F_Limit_1_3_3_2: 2 L_1_2_3 + y_CZ_1_3_3 + y_F_1_3_3 <= 2
CZ_F_Limit_1_3_3_3: 2 L_1_3_3 + y_CZ_1_3_3 + y_F_1_3_3 <= 2
CZ_F_Limit_1_3_3_4: 2 L_1_4_3 + y_CZ_1_3_3 + y_F_1_3_3 <= 2
CZ_F_Limit_1_3_3_5: 2 L_1_5_3 + y_CZ_1_3_3 + y_F_1_3_3 <= 2
CZ_F_Limit_1_3_4_0: L_1_0_3 + L_1_0_4 + y_CZ_1_3_4 + y_F_1_3_4 <= 2
CZ_F_Limit_1_3_4_1: L_1_1_3 + L_1_1_4 + y_CZ_1_3_4 + y_F_1_3_4 <= 2
CZ_F_Limit_1_3_4_2: L_1_2_3 + L_1_2_4 + y_CZ_1_3_4 + y_F_1_3_4 <= 2
CZ_F_Limit_1_3_4_3: L_1_3_3 + L_1_3_4 + y_CZ_1_3_4 + y_F_1_3_4 <= 2
CZ_F_Limit_1_3_4_4: L_1_4_3 + L_1_4_4 + y_CZ_1_3_4 + y_F_1_3_4 <= 2
CZ_F_Limit_1_3_4_5: L_1_5_3 + L_1_5_4 + y_CZ_1_3_4 + y_F_1_3_4 <= 2
CZ_F_Limit_1_3_5_0: L_1_0_3 + L_1_0_5 + y_CZ_1_3_5 + y_F_1_3_5 <= 2
CZ_F_Limit_1_3_5_1: L_1_1_3 + L_1_1_5 + y_CZ_1_3_5 + y_F_1_3_5 <= 2
CZ_F_Limit_1_3_5_2: L_1_2_3 + L_1_2_5 + y_CZ_1_3_5 + y_F_1_3_5 <= 2
CZ_F_Limit_1_3_5_3: L_1_3_3 + L_1_3_5 + y_CZ_1_3_5 + y_F_1_3_5 <= 2
CZ_F_Limit_1_3_5_4: L_1_4_3 + L_1_4_5 + y_CZ_1_3_5 + y_F_1_3_5 <= 2
CZ_F_Limit_1_3_5_5: L_1_5_3 + L_1_5_5 + y_CZ_1_3_5 + y_F_1_3_5 <= 2
CZ_F_Limit_1_4_0_0: L_1_0_0 + L_1_0_4 + y_CZ_1_4_0 + y_F_1_4_0 <= 2
CZ_F_Limit_1_4_0_1: L_1_1_0 + L_1_1_4 + y_CZ_1_4_0 + y_F_1_4_0 <= 2
CZ_F_Limit_1_4_0_2: L_1_2_0 + L_1_2_4 + y_CZ_1_4_0 + y_F_1_4_0 <= 2
CZ_F_Limit_1_4_0_3: L_1_3_0 + L_1_3_4 + y_CZ_1_4_0 + y_F_1_4_0 <= 2
CZ_F_Limit_1_4_0_4: L_1_4_0 + L_1_4_4 + y_CZ_1_4_0 + y_F_1_4_0 <= 2
CZ_F_Limit_1_4_0_5: L_1_5_0 + L_1_5_4 + y_CZ_1_4_0 + y_F_1_4_0 <= 2
CZ_F_Limit_1_4_1_0: L_1_0_1 + L_1_0_4 + y_CZ_1_4_1 + y_F_1_4_1 <= 2
CZ_F_Limit_1_4_1_1: L_1_1_1 + L_1_1_4 + y_CZ_1_4_1 + y_F_1_4_1 <= 2
CZ_F_Limit_1_4_1_2: L_1_2_1 + L_1_2_4 + y_CZ_1_4_1 + y_F_1_4_1 <= 2
CZ_F_Limit_1_4_1_3: L_1_3_1 + L_1_3_4 + y_CZ_1_4_1 + y_F_1_4_1 <= 2
CZ_F_Limit_1_4_1_4: L_1_4_1 + L_1_4_4 + y_CZ_1_4_1 + y_F_1_4_1 <= 2
CZ_F_Limit_1_4_1_5: L_1_5_1 + L_1_5_4 + y_CZ_1_4_1 + y_F_1_4_1 <= 2
CZ_F_Limit_1_4_2_0: L_1_0_2 + L_1_0_4 + y_CZ_1_4_2 + y_F_1_4_2 <= 2
CZ_F_Limit_1_4_2_1: L_1_1_2 + L_1_1_4 + y_CZ_1_4_2 + y_F_1_4_2 <= 2
CZ_F_Limit_1_4_2_2: L_1_2_2 + L_1_2_4 + y_CZ_1_4_2 + y_F_1_4_2 <= 2
CZ_F_Limit_1_4_2_3: L_1_3_2 + L_1_3_4 + y_CZ_1_4_2 + y_F_1_4_2 <= 2
CZ_F_Limit_1_4_2_4: L_1_4_2 + L_1_4_4 + y_CZ_1_4_2 + y_F_1_4_2 <= 2
CZ_F_Limit_1_4_2_5: L_1_5_2 + L_1_5_4 + y_CZ_1_4_2 + y_F_1_4_2 <= 2
CZ_F_Limit_1_4_3_0: L_1_0_3 + L_1_0_4 + y_CZ_1_4_3 + y_F_1_4_3 <= 2
CZ_F_Limit_1_4_3_1: L_1_1_3 + L_1_1_4 + y_CZ_1_4_3 + y_F_1_4_3 <= 2
CZ_F_Limit_1_4_3_2: L_1_2_3 + L_1_2_4 + y_CZ_1_4_3 + y_F_1_4_3 <= 2
CZ_F_Limit_1_4_3_3: L_1_3_3 + L_1_3_4 + y_CZ_1_4_3 + y_F_1_4_3 <= 2
CZ_F_Limit_1_4_3_4: L_1_4_3 + L_1_4_4 + y_CZ_1_4_3 + y_F_1_4_3 <= 2
CZ_F_Limit_1_4_3_5: L_1_5_3 + L_1_5_4 + y_CZ_1_4_3 + y_F_1_4_3 <= 2
CZ_F_Limit_1_4_4_0: 2 L_1_0_4 + y_CZ_1_4_4 + y_F_1_4_4 <= 2
CZ_F_Limit_1_4_4_1: 2 L_1_1_4 + y_CZ_1_4_4 + y_F_1_4_4 <= 2
CZ_F_Limit_1_4_4_2: 2 L_1_2_4 + y_CZ_1_4_4 + y_F_1_4_4 <= 2
CZ_F_Limit_1_4_4_3: 2 L_1_3_4 + y_CZ_1_4_4 + y_F_1_4_4 <= 2
CZ_F_Limit_1_4_4_4: 2 L_1_4_4 + y_CZ_1_4_4 + y_F_1_4_4 <= 2
CZ_F_Limit_1_4_4_5: 2 L_1_5_4 + y_CZ_1_4_4 + y_F_1_4_4 <= 2
CZ_F_Limit_1_4_5_0: L_1_0_4 + L_1_0_5 + y_CZ_1_4_5 + y_F_1_4_5 <= 2
CZ_F_Limit_1_4_5_1: L_1_1_4 + L_1_1_5 + y_CZ_1_4_5 + y_F_1_4_5 <= 2
CZ_F_Limit_1_4_5_2: L_1_2_4 + L_1_2_5 + y_CZ_1_4_5 + y_F_1_4_5 <= 2
CZ_F_Limit_1_4_5_3: L_1_3_4 + L_1_3_5 + y_CZ_1_4_5 + y_F_1_4_5 <= 2
CZ_F_Limit_1_4_5_4: L_1_4_4 + L_1_4_5 + y_CZ_1_4_5 + y_F_1_4_5 <= 2
CZ_F_Limit_1_4_5_5: L_1_5_4 + L_1_5_5 + y_CZ_1_4_5 + y_F_1_4_5 <= 2
CZ_F_Limit_1_5_0_0: L_1_0_0 + L_1_0_5 + y_CZ_1_5_0 + y_F_1_5_0 <= 2
CZ_F_Limit_1_5_0_1: L_1_1_0 + L_1_1_5 + y_CZ_1_5_0 + y_F_1_5_0 <= 2
CZ_F_Limit_1_5_0_2: L_1_2_0 + L_1_2_5 + y_CZ_1_5_0 + y_F_1_5_0 <= 2
CZ_F_Limit_1_5_0_3: L_1_3_0 + L_1_3_5 + y_CZ_1_5_0 + y_F_1_5_0 <= 2
CZ_F_Limit_1_5_0_4: L_1_4_0 + L_1_4_5 + y_CZ_1_5_0 + y_F_1_5_0 <= 2
CZ_F_Limit_1_5_0_5: L_1_5_0 + L_1_5_5 + y_CZ_1_5_0 + y_F_1_5_0 <= 2
CZ_F_Limit_1_5_1_0: L_1_0_1 + L_1_0_5 + y_CZ_1_5_1 + y_F_1_5_1 <= 2
CZ_F_Limit_1_5_1_1: L_1_1_1 + L_1_1_5 + y_CZ_1_5_1 + y_F_1_5_1 <= 2
CZ_F_Limit_1_5_1_2: L_1_2_1 + L_1_2_5 + y_CZ_1_5_1 + y_F_1_5_1 <= 2
CZ_F_Limit_1_5_1_3: L_1_3_1 + L_1_3_5 + y_CZ_1_5_1 + y_F_1_5_1 <= 2
CZ_F_Limit_1_5_1_4: L_1_4_1 + L_1_4_5 + y_CZ_1_5_1 + y_F_1_5_1 <= 2
CZ_F_Limit_1_5_1_5: L_1_5_1 + L_1_5_5 + y_CZ_1_5_1 + y_F_1_5_1 <= 2
CZ_F_Limit_1_5_2_0: L_1_0_2 + L_1_0_5 + y_CZ_1_5_2 + y_F_1_5_2 <= 2
CZ_F_Limit_1_5_2_1: L_1_1_2 + L_1_1_5 + y_CZ_1_5_2 + y_F_1_5_2 <= 2
CZ_F_Limit_1_5_2_2: L_1_2_2 + L_1_2_5 + y_CZ_1_5_2 + y_F_1_5_2 <= 2
CZ_F_Limit_1_5_2_3: L_1_3_2 + L_1_3_5 + y_CZ_1_5_2 + y_F_1_5_2 <= 2
CZ_F_Limit_1_5_2_4: L_1_4_2 + L_1_4_5 + y_CZ_1_5_2 + y_F_1_5_2 <= 2
CZ_F_Limit_1_5_2_5: L_1_5_2 + L_1_5_5 + y_CZ_1_5_2 + y_F_1_5_2 <= 2
CZ_F_Limit_1_5_3_0: L_1_0_3 + L_1_0_5 + y_CZ_1_5_3 + y_F_1_5_3 <= 2
CZ_F_Limit_1_5_3_1: L_1_1_3 + L_1_1_5 + y_CZ_1_5_3 + y_F_1_5_3 <= 2
CZ_F_Limit_1_5_3_2: L_1_2_3 + L_1_2_5 + y_CZ_1_5_3 + y_F_1_5_3 <= 2
CZ_F_Limit_1_5_3_3: L_1_3_3 + L_1_3_5 + y_CZ_1_5_3 + y_F_1_5_3 <= 2
CZ_F_Limit_1_5_3_4: L_1_4_3 + L_1_4_5 + y_CZ_1_5_3 + y_F_1_5_3 <= 2
CZ_F_Limit_1_5_3_5: L_1_5_3 + L_1_5_5 + y_CZ_1_5_3 + y_F_1_5_3 <= 2
CZ_F_Limit_1_5_4_0: L_1_0_4 + L_1_0_5 + y_CZ_1_5_4 + y_F_1_5_4 <= 2
CZ_F_Limit_1_5_4_1: L_1_1_4 + L_1_1_5 + y_CZ_1_5_4 + y_F_1_5_4 <= 2
CZ_F_Limit_1_5_4_2: L_1_2_4 + L_1_2_5 + y_CZ_1_5_4 + y_F_1_5_4 <= 2
CZ_F_Limit_1_5_4_3: L_1_3_4 + L_1_3_5 + y_CZ_1_5_4 + y_F_1_5_4 <= 2
CZ_F_Limit_1_5_4_4: L_1_4_4 + L_1_4_5 + y_CZ_1_5_4 + y_F_1_5_4 <= 2
CZ_F_Limit_1_5_4_5: L_1_5_4 + L_1_5_5 + y_CZ_1_5_4 + y_F_1_5_4 <= 2
CZ_F_Limit_1_5_5_0: 2 L_1_0_5 + y_CZ_1_5_5 + y_F_1_5_5 <= 2
CZ_F_Limit_1_5_5_1: 2 L_1_1_5 + y_CZ_1_5_5 + y_F_1_5_5 <= 2
CZ_F_Limit_1_5_5_2: 2 L_1_2_5 + y_CZ_1_5_5 + y_F_1_5_5 <= 2
CZ_F_Limit_1_5_5_3: 2 L_1_3_5 + y_CZ_1_5_5 + y_F_1_5_5 <= 2
CZ_F_Limit_1_5_5_4: 2 L_1_4_5 + y_CZ_1_5_5 + y_F_1_5_5 <= 2
CZ_F_Limit_1_5_5_5: 2 L_1_5_5 + y_CZ_1_5_5 + y_F_1_5_5 <= 2
CZ_F_Limit_2_0_0_0: 2 L_2_0_0 + y_CZ_2_0_0 + y_F_2_0_0 <= 2
CZ_F_Limit_2_0_0_1: 2 L_2_1_0 + y_CZ_2_0_0 + y_F_2_0_0 <= 2
CZ_F_Limit_2_0_0_2: 2 L_2_2_0 + y_CZ_2_0_0 + y_F_2_0_0 <= 2
CZ_F_Limit_2_0_0_3: 2 L_2_3_0 + y_CZ_2_0_0 + y_F_2_0_0 <= 2
CZ_F_Limit_2_0_0_4: 2 L_2_4_0 + y_CZ_2_0_0 + y_F_2_0_0 <= 2
CZ_F_Limit_2_0_0_5: 2 L_2_5_0 + y_CZ_2_0_0 + y_F_2_0_0 <= 2
CZ_F_Limit_2_0_1_0: L_2_0_0 + L_2_0_1 + y_CZ_2_0_1 + y_F_2_0_1 <= 2
CZ_F_Limit_2_0_1_1: L_2_1_0 + L_2_1_1 + y_CZ_2_0_1 + y_F_2_0_1 <= 2
CZ_F_Limit_2_0_1_2: L_2_2_0 + L_2_2_1 + y_CZ_2_0_1 + y_F_2_0_1 <= 2
CZ_F_Limit_2_0_1_3: L_2_3_0 + L_2_3_1 + y_CZ_2_0_1 + y_F_2_0_1 <= 2
CZ_F_Limit_2_0_1_4: L_2_4_0 + L_2_4_1 + y_CZ_2_0_1 + y_F_2_0_1 <= 2
CZ_F_Limit_2_0_1_5: L_2_5_0 + L_2_5_1 + y_CZ_2_0_1 + y_F_2_0_1 <= 2
CZ_F_Limit_2_0_2_0: L_2_0_0 + L_2_0_2 + y_CZ_2_0_2 + y_F_2_0_2 <= 2
CZ_F_Limit_2_0_2_1: L_2_1_0 + L_2_1_2 + y_CZ_2_0_2 + y_F_2_0_2 <= 2
CZ_F_Limit_2_0_2_2: L_2_2_0 + L_2_2_2 + y_CZ_2_0_2 + y_F_2_0_2 <= 2
CZ_F_Limit_2_0_2_3: L_2_3_0 + L_2_3_2 + y_CZ_2_0_2 + y_F_2_0_2 <= 2
CZ_F_Limit_2_0_2_4: L_2_4_0 + L_2_4_2 + y_CZ_2_0_2 + y_F_2_0_2 <= 2
CZ_F_Limit_2_0_2_5: L_2_5_0 + L_2_5_2 + y_CZ_2_0_2 + y_F_2_0_2 <= 2
CZ_F_Limit_2_0_3_0: L_2_0_0 + L_2_0_3 + y_CZ_2_0_3 + y_F_2_0_3 <= 2
CZ_F_Limit_2_0_3_1: L_2_1_0 + L_2_1_3 + y_CZ_2_0_3 + y_F_2_0_3 <= 2
CZ_F_Limit_2_0_3_2: L_2_2_0 + L_2_2_3 + y_CZ_2_0_3 + y_F_2_0_3 <= 2
CZ_F_Limit_2_0_3_3: L_2_3_0 + L_2_3_3 + y_CZ_2_0_3 + y_F_2_0_3 <= 2
CZ_F_Limit_2_0_3_4: L_2_4_0 + L_2_4_3 + y_CZ_2_0_3 + y_F_2_0_3 <= 2
CZ_F_Limit_2_0_3_5: L_2_5_0 + L_2_5_3 + y_CZ_2_0_3 + y_F_2_0_3 <= 2
CZ_F_Limit_2_0_4_0: L_2_0_0 + L_2_0_4 + y_CZ_2_0_4 + y_F_2_0_4 <= 2
CZ_F_Limit_2_0_4_1: L_2_1_0 + L_2_1_4 + y_CZ_2_0_4 + y_F_2_0_4 <= 2
CZ_F_Limit_2_0_4_2: L_2_2_0 + L_2_2_4 + y_CZ_2_0_4 + y_F_2_0_4 <= 2
CZ_F_Limit_2_0_4_3: L_2_3_0 + L_2_3_4 + y_CZ_2_0_4 + y_F_2_0_4 <= 2
CZ_F_Limit_2_0_4_4: L_2_4_0 + L_2_4_4 + y_CZ_2_0_4 + y_F_2_0_4 <= 2
CZ_F_Limit_2_0_4_5: L_2_5_0 + L_2_5_4 + y_CZ_2_0_4 + y_F_2_0_4 <= 2
CZ_F_Limit_2_0_5_0: L_2_0_0 + L_2_0_5 + y_CZ_2_0_5 + y_F_2_0_5 <= 2
CZ_F_Limit_2_0_5_1: L_2_1_0 + L_2_1_5 + y_CZ_2_0_5 + y_F_2_0_5 <= 2
CZ_F_Limit_2_0_5_2: L_2_2_0 + L_2_2_5 + y_CZ_2_0_5 + y_F_2_0_5 <= 2
CZ_F_Limit_2_0_5_3: L_2_3_0 + L_2_3_5 + y_CZ_2_0_5 + y_F_2_0_5 <= 2
CZ_F_Limit_2_0_5_4: L_2_4_0 + L_2_4_5 + y_CZ_2_0_5 + y_F_2_0_5 <= 2
CZ_F_Limit_2_0_5_5: L_2_5_0 + L_2_5_5 + y_CZ_2_0_5 + y_F_2_0_5 <= 2
CZ_F_Limit_2_1_0_0: L_2_0_0 + L_2_0_1 + y_CZ_2_1_0 + y_F_2_1_0 <= 2
CZ_F_Limit_2_1_0_1: L_2_1_0 + L_2_1_1 + y_CZ_2_1_0 + y_F_2_1_0 <= 2
CZ_F_Limit_2_1_0_2: L_2_2_0 + L_2_2_1 + y_CZ_2_1_0 + y_F_2_1_0 <= 2
CZ_F_Limit_2_1_0_3: L_2_3_0 + L_2_3_1 + y_CZ_2_1_0 + y_F_2_1_0 <= 2
CZ_F_Limit_2_1_0_4: L_2_4_0 + L_2_4_1 + y_CZ_2_1_0 + y_F_2_1_0 <= 2
CZ_F_Limit_2_1_0_5: L_2_5_0 + L_2_5_1 + y_CZ_2_1_0 + y_F_2_1_0 <= 2
CZ_F_Limit_2_1_1_0: 2 L_2_0_1 + y_CZ_2_1_1 + y_F_2_1_1 <= 2
CZ_F_Limit_2_1_1_1: 2 L_2_1_1 + y_CZ_2_1_1 + y_F_2_1_1 <= 2
CZ_F_Limit_2_1_1_2: 2 L_2_2_1 + y_CZ_2_1_1 + y_F_2_1_1 <= 2
CZ_F_Limit_2_1_1_3: 2 L_2_3_1 + y_CZ_2_1_1 + y_F_2_1_1 <= 2
CZ_F_Limit_2_1_1_4: 2 L_2_4_1 + y_CZ_2_1_1 + y_F_2_1_1 <= 2
CZ_F_Limit_2_1_1_5: 2 L_2_5_1 + y_CZ_2_1_1 + y_F_2_1_1 <= 2
CZ_F_Limit_2_1_2_0: L_2_0_1 + L_2_0_2 + y_CZ_2_1_2 + y_F_2_1_2 <= 2
CZ_F_Limit_2_1_2_1: L_2_1_1 + L_2_1_2 + y_CZ_2_1_2 + y_F_2_1_2 <= 2
CZ_F_Limit_2_1_2_2: L_2_2_1 + L_2_2_2 + y_CZ_2_1_2 + y_F_2_1_2 <= 2
CZ_F_Limit_2_1_2_3: L_2_3_1 + L_2_3_2 + y_CZ_2_1_2 + y_F_2_1_2 <= 2
CZ_F_Limit_2_1_2_4: L_2_4_1 + L_2_4_2 + y_CZ_2_1_2 + y_F_2_1_2 <= 2
CZ_F_Limit_2_1_2_5: L_2_5_1 + L_2_5_2 + y_CZ_2_1_2 + y_F_2_1_2 <= 2
CZ_F_Limit_2_1_3_0: L_2_0_1 + L_2_0_3 + y_CZ_2_1_3 + y_F_2_1_3 <= 2
CZ_F_Limit_2_1_3_1: L_2_1_1 + L_2_1_3 + y_CZ_2_1_3 + y_F_2_1_3 <= 2
CZ_F_Limit_2_1_3_2: L_2_2_1 + L_2_2_3 + y_CZ_2_1_3 + y_F_2_1_3 <= 2
CZ_F_Limit_2_1_3_3: L_2_3_1 + L_2_3_3 + y_CZ_2_1_3 + y_F_2_1_3 <= 2
CZ_F_Limit_2_1_3_4: L_2_4_1 + L_2_4_3 + y_CZ_2_1_3 + y_F_2_1_3 <= 2
CZ_F_Limit_2_1_3_5: L_2_5_1 + L_2_5_3 + y_CZ_2_1_3 + y_F_2_1_3 <= 2
CZ_F_Limit_2_1_4_0: L_2_0_1 + L_2_0_4 + y_CZ_2_1_4 + y_F_2_1_4 <= 2
CZ_F_Limit_2_1_4_1: L_2_1_1 + L_2_1_4 + y_CZ_2_1_4 + y_F_2_1_4 <= 2
CZ_F_Limit_2_1_4_2: L_2_2_1 + L_2_2_4 + y_CZ_2_1_4 + y_F_2_1_4 <= 2
CZ_F_Limit_2_1_4_3: L_2_3_1 + L_2_3_4 + y_CZ_2_1_4 + y_F_2_1_4 <= 2
CZ_F_Limit_2_1_4_4: L_2_4_1 + L_2_4_4 + y_CZ_2_1_4 + y_F_2_1_4 <= 2
CZ_F_Limit_2_1_4_5: L_2_5_1 + L_2_5_4 + y_CZ_2_1_4 + y_F_2_1_4 <= 2
CZ_F_Limit_2_1_5_0: L_2_0_1 + L_2_0_5 + y_CZ_2_1_5 + y_F_2_1_5 <= 2
CZ_F_Limit_2_1_5_1: L_2_1_1 + L_2_1_5 + y_CZ_2_1_5 + y_F_2_1_5 <= 2
CZ_F_Limit_2_1_5_2: L_2_2_1 + L_2_2_5 + y_CZ_2_1_5 + y_F_2_1_5 <= 2
CZ_F_Limit_2_1_5_3: L_2_3_1 + L_2_3_5 + y_CZ_2_1_5 + y_F_2_1_5 <= 2
CZ_F_Limit_2_1_5_4: L_2_4_1 + L_2_4_5 + y_CZ_2_1_5 + y_F_2_1_5 <= 2
CZ_F_Limit_2_1_5_5: L_2_5_1 + L_2_5_5 + y_CZ_2_1_5 + y_F_2_1_5 <= 2
CZ_F_Limit_2_2_0_0: L_2_0_0 + L_2_0_2 + y_CZ_2_2_0 + y_F_2_2_0 <= 2
CZ_F_Limit_2_2_0_1: L_2_1_0 + L_2_1_2 + y_CZ_2_2_0 + y_F_2_2_0 <= 2
CZ_F_Limit_2_2_0_2: L_2_2_0 + L_2_2_2 + y_CZ_2_2_0 + y_F_2_2_0 <= 2
CZ_F_Limit_2_2_0_3: L_2_3_0 + L_2_3_2 + y_CZ_2_2_0 + y_F_2_2_0 <= 2
CZ_F_Limit_2_2_0_4: L_2_4_0 + L_2_4_2 + y_CZ_2_2_0 + y_F_2_2_0 <= 2
CZ_F_Limit_2_2_0_5: L_2_5_0 + L_2_5_2 + y_CZ_2_2_0 + y_F_2_2_0 <= 2
CZ_F_Limit_2_2_1_0: L_2_0_1 + L_2_0_2 + y_CZ_2_2_1 + y_F_2_2_1 <= 2
CZ_F_Limit_2_2_1_1: L_2_1_1 + L_2_1_2 + y_CZ_2_2_1 + y_F_2_2_1 <= 2
CZ_F_Limit_2_2_1_2: L_2_2_1 + L_2_2_2 + y_CZ_2_2_1 + y_F_2_2_1 <= 2
CZ_F_Limit_2_2_1_3: L_2_3_1 + L_2_3_2 + y_CZ_2_2_1 + y_F_2_2_1 <= 2
CZ_F_Limit_2_2_1_4: L_2_4_1 + L_2_4_2 + y_CZ_2_2_1 + y_F_2_2_1 <= 2
CZ_F_Limit_2_2_1_5: L_2_5_1 + L_2_5_2 + y_CZ_2_2_1 + y_F_2_2_1 <= 2
CZ_F_Limit_2_2_2_0: 2 L_2_0_2 + y_CZ_2_2_2 + y_F_2_2_2 <= 2
CZ_F_Limit_2_2_2_1: 2 L_2_1_2 + y_CZ_2_2_2 + y_F_2_2_2 <= 2
CZ_F_Limit_2_2_2_2: 2 L_2_2_2 + y_CZ_2_2_2 + y_F_2_2_2 <= 2
CZ_F_Limit_2_2_2_3: 2 L_2_3_2 + y_CZ_2_2_2 + y_F_2_2_2 <= 2
CZ_F_Limit_2_2_2_4: 2 L_2_4_2 + y_CZ_2_2_2 + y_F_2_2_2 <= 2
CZ_F_Limit_2_2_2_5: 2 L_2_5_2 + y_CZ_2_2_2 + y_F_2_2_2 <= 2
CZ_F_Limit_2_2_3_0: L_2_0_2 + L_2_0_3 + y_CZ_2_2_3 + y_F_2_2_3 <= 2
CZ_F_Limit_2_2_3_1: L_2_1_2 + L_2_1_3 + y_CZ_2_2_3 + y_F_2_2_3 <= 2
CZ_F_Limit_2_2_3_2: L_2_2_2 + L_2_2_3 + y_CZ_2_2_3 + y_F_2_2_3 <= 2
CZ_F_Limit_2_2_3_3: L_2_3_2 + L_2_3_3 + y_CZ_2_2_3 + y_F_2_2_3 <= 2
CZ_F_Limit_2_2_3_4: L_2_4_2 + L_2_4_3 + y_CZ_2_2_3 + y_F_2_2_3 <= 2
CZ_F_Limit_2_2_3_5: L_2_5_2 + L_2_5_3 + y_CZ_2_2_3 + y_F_2_2_3 <= 2
CZ_F_Limit_2_2_4_0: L_2_0_2 + L_2_0_4 + y_CZ_2_2_4 + y_F_2_2_4 <= 2
CZ_F_Limit_2_2_4_1: L_2_1_2 + L_2_1_4 + y_CZ_2_2_4 + y_F_2_2_4 <= 2
CZ_F_Limit_2_2_4_2: L_2_2_2 + L_2_2_4 + y_CZ_2_2_4 + y_F_2_2_4 <= 2
CZ_F_Limit_2_2_4_3: L_2_3_2 + L_2_3_4 + y_CZ_2_2_4 + y_F_2_2_4 <= 2
CZ_F_Limit_2_2_4_4: L_2_4_2 + L_2_4_4 + y_CZ_2_2_4 + y_F_2_2_4 <= 2
CZ_F_Limit_2_2_4_5: L_2_5_2 + L_2_5_4 + y_CZ_2_2_4 + y_F_2_2_4 <= 2
CZ_F_Limit_2_2_5_0: L_2_0_2 + L_2_0_5 + y_CZ_2_2_5 + y_F_2_2_5 <= 2
CZ_F_Limit_2_2_5_1: L_2_1_2 + L_2_1_5 + y_CZ_2_2_5 + y_F_2_2_5 <= 2
CZ_F_Limit_2_2_5_2: L_2_2_2 + L_2_2_5 + y_CZ_2_2_5 + y_F_2_2_5 <= 2
CZ_F_Limit_2_2_5_3: L_2_3_2 + L_2_3_5 + y_CZ_2_2_5 + y_F_2_2_5 <= 2
CZ_F_Limit_2_2_5_4: L_2_4_2 + L_2_4_5 + y_CZ_2_2_5 + y_F_2_2_5 <= 2
CZ_F_Limit_2_2_5_5: L_2_5_2 + L_2_5_5 + y_CZ_2_2_5 + y_F_2_2_5 <= 2
CZ_F_Limit_2_3_0_0: L_2_0_0 + L_2_0_3 + y_CZ_2_3_0 + y_F_2_3_0 <= 2
CZ_F_Limit_2_3_0_1: L_2_1_0 + L_2_1_3 + y_CZ_2_3_0 + y_F_2_3_0 <= 2
CZ_F_Limit_2_3_0_2: L_2_2_0 + L_2_2_3 + y_CZ_2_3_0 + y_F_2_3_0 <= 2
CZ_F_Limit_2_3_0_3: L_2_3_0 + L_2_3_3 + y_CZ_2_3_0 + y_F_2_3_0 <= 2
CZ_F_Limit_2_3_0_4: L_2_4_0 + L_2_4_3 + y_CZ_2_3_0 + y_F_2_3_0 <= 2
CZ_F_Limit_2_3_0_5: L_2_5_0 + L_2_5_3 + y_CZ_2_3_0 + y_F_2_3_0 <= 2
CZ_F_Limit_2_3_1_0: L_2_0_1 + L_2_0_3 + y_CZ_2_3_1 + y_F_2_3_1 <= 2
CZ_F_Limit_2_3_1_1: L_2_1_1 + L_2_1_3 + y_CZ_2_3_1 + y_F_2_3_1 <= 2
CZ_F_Limit_2_3_1_2: L_2_2_1 + L_2_2_3 + y_CZ_2_3_1 + y_F_2_3_1 <= 2
CZ_F_Limit_2_3_1_3: L_2_3_1 + L_2_3_3 + y_CZ_2_3_1 + y_F_2_3_1 <= 2
CZ_F_Limit_2_3_1_4: L_2_4_1 + L_2_4_3 + y_CZ_2_3_1 + y_F_2_3_1 <= 2
CZ_F_Limit_2_3_1_5: L_2_5_1 + L_2_5_3 + y_CZ_2_3_1 + y_F_2_3_1 <= 2
CZ_F_Limit_2_3_2_0: L_2_0_2 + L_2_0_3 + y_CZ_2_3_2 + y_F_2_3_2 <= 2
CZ_F_Limit_2_3_2_1: L_2_1_2 + L_2_1_3 + y_CZ_2_3_2 + y_F_2_3_2 <= 2
CZ_F_Limit_2_3_2_2: L_2_2_2 + L_2_2_3 + y_CZ_2_3_2 + y_F_2_3_2 <= 2
CZ_F_Limit_2_3_2_3: L_2_3_2 + L_2_3_3 + y_CZ_2_3_2 + y_F_2_3_2 <= 2
CZ_F_Limit_2_3_2_4: L_2_4_2 + L_2_4_3 + y_CZ_2_3_2 + y_F_2_3_2 <= 2
CZ_F_Limit_2_3_2_5: L_2_5_2 + L_2_5_3 + y_CZ_2_3_2 + y_F_2_3_2 <= 2
CZ_F_Limit_2_3_3_0: 2 L_2_0_3 + y_CZ_2_3_3 + y_F_2_3_3 <= 2
CZ_F_Limit_2_3_3_1: 2 L_2_1_3 + y_CZ_2_3_3 + y_F_2_3_3 <= 2
CZ_F_Limit_2_3_3_2: 2 L_2_2_3 + y_CZ_2_3_3 + y_F_2_3_3 <= 2
CZ_F_Limit_2_3_3_3: 2 L_2_3_3 + y_CZ_2_3_3 + y_F_2_3_3 <= 2
CZ_F_Limit_2_3_3_4: 2 L_2_4_3 + y_CZ_2_3_3 + y_F_2_3_3 <= 2
CZ_F_Limit_2_3_3_5: 2 L_2_5_3 + y_CZ_2_3_3 + y_F_2_3_3 <= 2
CZ_F_Limit_2_3_4_0: L_2_0_3 + L_2_0_4 + y_CZ_2_3_4 + y_F_2_3_4 <= 2
CZ_F_Limit_2_3_4_1: L_2_1_3 + L_2_1_4 + y_CZ_2_3_4 + y_F_2_3_4 <= 2
CZ_F_Limit_2_3_4_2: L_2_2_3 + L_2_2_4 + y_CZ_2_3_4 + y_F_2_3_4 <= 2
CZ_F_Limit_2_3_4_3: L_2_3_3 + L_2_3_4 + y_CZ_2_3_4 + y_F_2_3_4 <= 2
CZ_F_Limit_2_3_4_4: L_2_4_3 + L_2_4_4 + y_CZ_2_3_4 + y_F_2_3_4 <= 2
CZ_F_Limit_2_3_4_5: L_2_5_3 + L_2_5_4 + y_CZ_2_3_4 + y_F_2_3_4 <= 2
CZ_F_Limit_2_3_5_0: L_2_0_3 + L_2_0_5 + y_CZ_2_3_5 + y_F_2_3_5 <= 2
CZ_F_Limit_2_3_5_1: L_2_1_3 + L_2_1_5 + y_CZ_2_3_5 + y_F_2_3_5 <= 2
CZ_F_Limit_2_3_5_2: L_2_2_3 + L_2_2_5 + y_CZ_2_3_5 + y_F_2_3_5 <= 2
CZ_F_Limit_2_3_5_3: L_2_3_3 + L_2_3_5 + y_CZ_2_3_5 + y_F_2_3_5 <= 2
CZ_F_Limit_2_3_5_4: L_2_4_3 + L_2_4_5 + y_CZ_2_3_5 + y_F_2_3_5 <= 2
CZ_F_Limit_2_3_5_5: L_2_5_3 + L_2_5_5 + y_CZ_2_3_5 + y_F_2_3_5 <= 2
CZ_F_Limit_2_4_0_0: L_2_0_0 + L_2_0_4 + y_CZ_2_4_0 + y_F_2_4_0 <= 2
CZ_F_Limit_2_4_0_1: L_2_1_0 + L_2_1_4 + y_CZ_2_4_0 + y_F_2_4_0 <= 2
CZ_F_Limit_2_4_0_2: L_2_2_0 + L_2_2_4 + y_CZ_2_4_0 + y_F_2_4_0 <= 2
CZ_F_Limit_2_4_0_3: L_2_3_0 + L_2_3_4 + y_CZ_2_4_0 + y_F_2_4_0 <= 2
CZ_F_Limit_2_4_0_4: L_2_4_0 + L_2_4_4 + y_CZ_2_4_0 + y_F_2_4_0 <= 2
CZ_F_Limit_2_4_0_5: L_2_5_0 + L_2_5_4 + y_CZ_2_4_0 + y_F_2_4_0 <= 2
CZ_F_Limit_2_4_1_0: L_2_0_1 + L_2_0_4 + y_CZ_2_4_1 + y_F_2_4_1 <= 2
CZ_F_Limit_2_4_1_1: L_2_1_1 + L_2_1_4 + y_CZ_2_4_1 + y_F_2_4_1 <= 2
CZ_F_Limit_2_4_1_2: L_2_2_1 + L_2_2_4 + y_CZ_2_4_1 + y_F_2_4_1 <= 2
CZ_F_Limit_2_4_1_3: L_2_3_1 + L_2_3_4 + y_CZ_2_4_1 + y_F_2_4_1 <= 2
CZ_F_Limit_2_4_1_4: L_2_4_1 + L_2_4_4 + y_CZ_2_4_1 + y_F_2_4_1 <= 2
CZ_F_Limit_2_4_1_5: L_2_5_1 + L_2_5_4 + y_CZ_2_4_1 + y_F_2_4_1 <= 2
CZ_F_Limit_2_4_2_0: L_2_0_2 + L_2_0_4 + y_CZ_2_4_2 + y_F_2_4_2 <= 2
CZ_F_Limit_2_4_2_1: L_2_1_2 + L_2_1_4 + y_CZ_2_4_2 + y_F_2_4_2 <= 2
CZ_F_Limit_2_4_2_2: L_2_2_2 + L_2_2_4 + y_CZ_2_4_2 + y_F_2_4_2 <= 2
CZ_F_Limit_2_4_2_3: L_2_3_2 + L_2_3_4 + y_CZ_2_4_2 + y_F_2_4_2 <= 2
CZ_F_Limit_2_4_2_4: L_2_4_2 + L_2_4_4 + y_CZ_2_4_2 + y_F_2_4_2 <= 2
CZ_F_Limit_2_4_2_5: L_2_5_2 + L_2_5_4 + y_CZ_2_4_2 + y_F_2_4_2 <= 2
CZ_F_Limit_2_4_3_0: L_2_0_3 + L_2_0_4 + y_CZ_2_4_3 + y_F_2_4_3 <= 2
CZ_F_Limit_2_4_3_1: L_2_1_3 + L_2_1_4 + y_CZ_2_4_3 + y_F_2_4_3 <= 2
CZ_F_Limit_2_4_3_2: L_2_2_3 + L_2_2_4 + y_CZ_2_4_3 + y_F_2_4_3 <= 2
CZ_F_Limit_2_4_3_3: L_2_3_3 + L_2_3_4 + y_CZ_2_4_3 + y_F_2_4_3 <= 2
CZ_F_Limit_2_4_3_4: L_2_4_3 + L_2_4_4 + y_CZ_2_4_3 + y_F_2_4_3 <= 2
CZ_F_Limit_2_4_3_5: L_2_5_3 + L_2_5_4 + y_CZ_2_4_3 + y_F_2_4_3 <= 2
CZ_F_Limit_2_4_4_0: 2 L_2_0_4 + y_CZ_2_4_4 + y_F_2_4_4 <= 2
CZ_F_Limit_2_4_4_1: 2 L_2_1_4 + y_CZ_2_4_4 + y_F_2_4_4 <= 2
CZ_F_Limit_2_4_4_2: 2 L_2_2_4 + y_CZ_2_4_4 + y_F_2_4_4 <= 2
CZ_F_Limit_2_4_4_3: 2 L_2_3_4 + y_CZ_2_4_4 + y_F_2_4_4 <= 2
CZ_F_Limit_2_4_4_4: 2 L_2_4_4 + y_CZ_2_4_4 + y_F_2_4_4 <= 2
CZ_F_Limit_2_4_4_5: 2 L_2_5_4 + y_CZ_2_4_4 + y_F_2_4_4 <= 2
CZ_F_Limit_2_4_5_0: L_2_0_4 + L_2_0_5 + y_CZ_2_4_5 + y_F_2_4_5 <= 2
CZ_F_Limit_2_4_5_1: L_2_1_4 + L_2_1_5 + y_CZ_2_4_5 + y_F_2_4_5 <= 2
CZ_F_Limit_2_4_5_2: L_2_2_4 + L_2_2_5 + y_CZ_2_4_5 + y_F_2_4_5 <= 2
CZ_F_Limit_2_4_5_3: L_2_3_4 + L_2_3_5 + y_CZ_2_4_5 + y_F_2_4_5 <= 2
CZ_F_Limit_2_4_5_4: L_2_4_4 + L_2_4_5 + y_CZ_2_4_5 + y_F_2_4_5 <= 2
CZ_F_Limit_2_4_5_5: L_2_5_4 + L_2_5_5 + y_CZ_2_4_5 + y_F_2_4_5 <= 2
CZ_F_Limit_2_5_0_0: L_2_0_0 + L_2_0_5 + y_CZ_2_5_0 + y_F_2_5_0 <= 2
CZ_F_Limit_2_5_0_1: L_2_1_0 + L_2_1_5 + y_CZ_2_5_0 + y_F_2_5_0 <= 2
CZ_F_Limit_2_5_0_2: L_2_2_0 + L_2_2_5 + y_CZ_2_5_0 + y_F_2_5_0 <= 2
CZ_F_Limit_2_5_0_3: L_2_3_0 + L_2_3_5 + y_CZ_2_5_0 + y_F_2_5_0 <= 2
CZ_F_Limit_2_5_0_4: L_2_4_0 + L_2_4_5 + y_CZ_2_5_0 + y_F_2_5_0 <= 2
CZ_F_Limit_2_5_0_5: L_2_5_0 + L_2_5_5 + y_CZ_2_5_0 + y_F_2_5_0 <= 2
CZ_F_Limit_2_5_1_0: L_2_0_1 + L_2_0_5 + y_CZ_2_5_1 + y_F_2_5_1 <= 2
CZ_F_Limit_2_5_1_1: L_2_1_1 + L_2_1_5 + y_CZ_2_5_1 + y_F_2_5_1 <= 2
CZ_F_Limit_2_5_1_2: L_2_2_1 + L_2_2_5 + y_CZ_2_5_1 + y_F_2_5_1 <= 2
CZ_F_Limit_2_5_1_3: L_2_3_1 + L_2_3_5 + y_CZ_2_5_1 + y_F_2_5_1 <= 2
CZ_F_Limit_2_5_1_4: L_2_4_1 + L_2_4_5 + y_CZ_2_5_1 + y_F_2_5_1 <= 2
CZ_F_Limit_2_5_1_5: L_2_5_1 + L_2_5_5 + y_CZ_2_5_1 + y_F_2_5_1 <= 2
CZ_F_Limit_2_5_2_0: L_2_0_2 + L_2_0_5 + y_CZ_2_5_2 + y_F_2_5_2 <= 2
CZ_F_Limit_2_5_2_1: L_2_1_2 + L_2_1_5 + y_CZ_2_5_2 + y_F_2_5_2 <= 2
CZ_F_Limit_2_5_2_2: L_2_2_2 + L_2_2_5 + y_CZ_2_5_2 + y_F_2_5_2 <= 2
CZ_F_Limit_2_5_2_3: L_2_3_2 + L_2_3_5 + y_CZ_2_5_2 + y_F_2_5_2 <= 2
CZ_F_Limit_2_5_2_4: L_2_4_2 + L_2_4_5 + y_CZ_2_5_2 + y_F_2_5_2 <= 2
CZ_F_Limit_2_5_2_5: L_2_5_2 + L_2_5_5 + y_CZ_2_5_2 + y_F_2_5_2 <= 2
CZ_F_Limit_2_5_3_0: L_2_0_3 + L_2_0_5 + y_CZ_2_5_3 + y_F_2_5_3 <= 2
CZ_F_Limit_2_5_3_1: L_2_1_3 + L_2_1_5 + y_CZ_2_5_3 + y_F_2_5_3 <= 2
CZ_F_Limit_2_5_3_2: L_2_2_3 + L_2_2_5 + y_CZ_2_5_3 + y_F_2_5_3 <= 2
CZ_F_Limit_2_5_3_3: L_2_3_3 + L_2_3_5 + y_CZ_2_5_3 + y_F_2_5_3 <= 2
CZ_F_Limit_2_5_3_4: L_2_4_3 + L_2_4_5 + y_CZ_2_5_3 + y_F_2_5_3 <= 2
CZ_F_Limit_2_5_3_5: L_2_5_3 + L_2_5_5 + y_CZ_2_5_3 + y_F_2_5_3 <= 2
CZ_F_Limit_2_5_4_0: L_2_0_4 + L_2_0_5 + y_CZ_2_5_4 + y_F_2_5_4 <= 2
CZ_F_Limit_2_5_4_1: L_2_1_4 + L_2_1_5 + y_CZ_2_5_4 + y_F_2_5_4 <= 2
CZ_F_Limit_2_5_4_2: L_2_2_4 + L_2_2_5 + y_CZ_2_5_4 + y_F_2_5_4 <= 2
CZ_F_Limit_2_5_4_3: L_2_3_4 + L_2_3_5 + y_CZ_2_5_4 + y_F_2_5_4 <= 2
CZ_F_Limit_2_5_4_4: L_2_4_4 + L_2_4_5 + y_CZ_2_5_4 + y_F_2_5_4 <= 2
CZ_F_Limit_2_5_4_5: L_2_5_4 + L_2_5_5 + y_CZ_2_5_4 + y_F_2_5_4 <= 2
CZ_F_Limit_2_5_5_0: 2 L_2_0_5 + y_CZ_2_5_5 + y_F_2_5_5 <= 2
CZ_F_Limit_2_5_5_1: 2 L_2_1_5 + y_CZ_2_5_5 + y_F_2_5_5 <= 2
CZ_F_Limit_2_5_5_2: 2 L_2_2_5 + y_CZ_2_5_5 + y_F_2_5_5 <= 2
CZ_F_Limit_2_5_5_3: 2 L_2_3_5 + y_CZ_2_5_5 + y_F_2_5_5 <= 2
CZ_F_Limit_2_5_5_4: 2 L_2_4_5 + y_CZ_2_5_5 + y_F_2_5_5 <= 2
CZ_F_Limit_2_5_5_5: 2 L_2_5_5 + y_CZ_2_5_5 + y_F_2_5_5 <= 2
CZ_F_Limit_3_0_0_0: 2 L_3_0_0 + y_CZ_3_0_0 + y_F_3_0_0 <= 2
CZ_F_Limit_3_0_0_1: 2 L_3_1_0 + y_CZ_3_0_0 + y_F_3_0_0 <= 2
CZ_F_Limit_3_0_0_2: 2 L_3_2_0 + y_CZ_3_0_0 + y_F_3_0_0 <= 2
CZ_F_Limit_3_0_0_3: 2 L_3_3_0 + y_CZ_3_0_0 + y_F_3_0_0 <= 2
CZ_F_Limit_3_0_0_4: 2 L_3_4_0 + y_CZ_3_0_0 + y_F_3_0_0 <= 2
CZ_F_Limit_3_0_0_5: 2 L_3_5_0 + y_CZ_3_0_0 + y_F_3_0_0 <= 2
CZ_F_Limit_3_0_1_0: L_3_0_0 + L_3_0_1 + y_CZ_3_0_1 + y_F_3_0_1 <= 2
CZ_F_Limit_3_0_1_1: L_3_1_0 + L_3_1_1 + y_CZ_3_0_1 + y_F_3_0_1 <= 2
CZ_F_Limit_3_0_1_2: L_3_2_0 + L_3_2_1 + y_CZ_3_0_1 + y_F_3_0_1 <= 2
CZ_F_Limit_3_0_1_3: L_3_3_0 + L_3_3_1 + y_CZ_3_0_1 + y_F_3_0_1 <= 2
CZ_F_Limit_3_0_1_4: L_3_4_0 + L_3_4_1 + y_CZ_3_0_1 + y_F_3_0_1 <= 2
CZ_F_Limit_3_0_1_5: L_3_5_0 + L_3_5_1 + y_CZ_3_0_1 + y_F_3_0_1 <= 2
CZ_F_Limit_3_0_2_0: L_3_0_0 + L_3_0_2 + y_CZ_3_0_2 + y_F_3_0_2 <= 2
CZ_F_Limit_3_0_2_1: L_3_1_0 + L_3_1_2 + y_CZ_3_0_2 + y_F_3_0_2 <= 2
CZ_F_Limit_3_0_2_2: L_3_2_0 + L_3_2_2 + y_CZ_3_0_2 + y_F_3_0_2 <= 2
CZ_F_Limit_3_0_2_3: L_3_3_0 + L_3_3_2 + y_CZ_3_0_2 + y_F_3_0_2 <= 2
CZ_F_Limit_3_0_2_4: L_3_4_0 + L_3_4_2 + y_CZ_3_0_2 + y_F_3_0_2 <= 2
CZ_F_Limit_3_0_2_5: L_3_5_0 + L_3_5_2 + y_CZ_3_0_2 + y_F_3_0_2 <= 2
CZ_F_Limit_3_0_3_0: L_3_0_0 + L_3_0_3 + y_CZ_3_0_3 + y_F_3_0_3 <= 2
CZ_F_Limit_3_0_3_1: L_3_1_0 + L_3_1_3 + y_CZ_3_0_3 + y_F_3_0_3 <= 2
CZ_F_Limit_3_0_3_2: L_3_2_0 + L_3_2_3 + y_CZ_3_0_3 + y_F_3_0_3 <= 2
CZ_F_Limit_3_0_3_3: L_3_3_0 + L_3_3_3 + y_CZ_3_0_3 + y_F_3_0_3 <= 2
CZ_F_Limit_3_0_3_4: L_3_4_0 + L_3_4_3 + y_CZ_3_0_3 + y_F_3_0_3 <= 2
CZ_F_Limit_3_0_3_5: L_3_5_0 + L_3_5_3 + y_CZ_3_0_3 + y_F_3_0_3 <= 2
CZ_F_Limit_3_0_4_0: L_3_0_0 + L_3_0_4 + y_CZ_3_0_4 + y_F_3_0_4 <= 2
CZ_F_Limit_3_0_4_1: L_3_1_0 + L_3_1_4 + y_CZ_3_0_4 + y_F_3_0_4 <= 2
CZ_F_Limit_3_0_4_2: L_3_2_0 + L_3_2_4 + y_CZ_3_0_4 + y_F_3_0_4 <= 2
CZ_F_Limit_3_0_4_3: L_3_3_0 + L_3_3_4 + y_CZ_3_0_4 + y_F_3_0_4 <= 2
CZ_F_Limit_3_0_4_4: L_3_4_0 + L_3_4_4 + y_CZ_3_0_4 + y_F_3_0_4 <= 2
CZ_F_Limit_3_0_4_5: L_3_5_0 + L_3_5_4 + y_CZ_3_0_4 + y_F_3_0_4 <= 2
CZ_F_Limit_3_0_5_0: L_3_0_0 + L_3_0_5 + y_CZ_3_0_5 + y_F_3_0_5 <= 2
CZ_F_Limit_3_0_5_1: L_3_1_0 + L_3_1_5 + y_CZ_3_0_5 + y_F_3_0_5 <= 2
CZ_F_Limit_3_0_5_2: L_3_2_0 + L_3_2_5 + y_CZ_3_0_5 + y_F_3_0_5 <= 2
CZ_F_Limit_3_0_5_3: L_3_3_0 + L_3_3_5 + y_CZ_3_0_5 + y_F_3_0_5 <= 2
CZ_F_Limit_3_0_5_4: L_3_4_0 + L_3_4_5 + y_CZ_3_0_5 + y_F_3_0_5 <= 2
CZ_F_Limit_3_0_5_5: L_3_5_0 + L_3_5_5 + y_CZ_3_0_5 + y_F_3_0_5 <= 2
CZ_F_Limit_3_1_0_0: L_3_0_0 + L_3_0_1 + y_CZ_3_1_0 + y_F_3_1_0 <= 2
CZ_F_Limit_3_1_0_1: L_3_1_0 + L_3_1_1 + y_CZ_3_1_0 + y_F_3_1_0 <= 2
CZ_F_Limit_3_1_0_2: L_3_2_0 + L_3_2_1 + y_CZ_3_1_0 + y_F_3_1_0 <= 2
CZ_F_Limit_3_1_0_3: L_3_3_0 + L_3_3_1 + y_CZ_3_1_0 + y_F_3_1_0 <= 2
CZ_F_Limit_3_1_0_4: L_3_4_0 + L_3_4_1 + y_CZ_3_1_0 + y_F_3_1_0 <= 2
CZ_F_Limit_3_1_0_5: L_3_5_0 + L_3_5_1 + y_CZ_3_1_0 + y_F_3_1_0 <= 2
CZ_F_Limit_3_1_1_0: 2 L_3_0_1 + y_CZ_3_1_1 + y_F_3_1_1 <= 2
CZ_F_Limit_3_1_1_1: 2 L_3_1_1 + y_CZ_3_1_1 + y_F_3_1_1 <= 2
CZ_F_Limit_3_1_1_2: 2 L_3_2_1 + y_CZ_3_1_1 + y_F_3_1_1 <= 2
CZ_F_Limit_3_1_1_3: 2 L_3_3_1 + y_CZ_3_1_1 + y_F_3_1_1 <= 2
CZ_F_Limit_3_1_1_4: 2 L_3_4_1 + y_CZ_3_1_1 + y_F_3_1_1 <= 2
CZ_F_Limit_3_1_1_5: 2 L_3_5_1 + y_CZ_3_1_1 + y_F_3_1_1 <= 2
CZ_F_Limit_3_1_2_0: L_3_0_1 + L_3_0_2 + y_CZ_3_1_2 + y_F_3_1_2 <= 2
CZ_F_Limit_3_1_2_1: L_3_1_1 + L_3_1_2 + y_CZ_3_1_2 + y_F_3_1_2 <= 2
CZ_F_Limit_3_1_2_2: L_3_2_1 + L_3_2_2 + y_CZ_3_1_2 + y_F_3_1_2 <= 2
CZ_F_Limit_3_1_2_3: L_3_3_1 + L_3_3_2 + y_CZ_3_1_2 + y_F_3_1_2 <= 2
CZ_F_Limit_3_1_2_4: L_3_4_1 + L_3_4_2 + y_CZ_3_1_2 + y_F_3_1_2 <= 2
CZ_F_Limit_3_1_2_5: L_3_5_1 + L_3_5_2 + y_CZ_3_1_2 + y_F_3_1_2 <= 2
CZ_F_Limit_3_1_3_0: L_3_0_1 + L_3_0_3 + y_CZ_3_1_3 + y_F_3_1_3 <= 2
CZ_F_Limit_3_1_3_1: L_3_1_1 + L_3_1_3 + y_CZ_3_1_3 + y_F_3_1_3 <= 2
CZ_F_Limit_3_1_3_2: L_3_2_1 + L_3_2_3 + y_CZ_3_1_3 + y_F_3_1_3 <= 2
CZ_F_Limit_3_1_3_3: L_3_3_1 + L_3_3_3 + y_CZ_3_1_3 + y_F_3_1_3 <= 2
CZ_F_Limit_3_1_3_4: L_3_4_1 + L_3_4_3 + y_CZ_3_1_3 + y_F_3_1_3 <= 2
CZ_F_Limit_3_1_3_5: L_3_5_1 + L_3_5_3 + y_CZ_3_1_3 + y_F_3_1_3 <= 2
CZ_F_Limit_3_1_4_0: L_3_0_1 + L_3_0_4 + y_CZ_3_1_4 + y_F_3_1_4 <= 2
CZ_F_Limit_3_1_4_1: L_3_1_1 + L_3_1_4 + y_CZ_3_1_4 + y_F_3_1_4 <= 2
CZ_F_Limit_3_1_4_2: L_3_2_1 + L_3_2_4 + y_CZ_3_1_4 + y_F_3_1_4 <= 2
CZ_F_Limit_3_1_4_3: L_3_3_1 + L_3_3_4 + y_CZ_3_1_4 + y_F_3_1_4 <= 2
CZ_F_Limit_3_1_4_4: L_3_4_1 + L_3_4_4 + y_CZ_3_1_4 + y_F_3_1_4 <= 2
CZ_F_Limit_3_1_4_5: L_3_5_1 + L_3_5_4 + y_CZ_3_1_4 + y_F_3_1_4 <= 2
CZ_F_Limit_3_1_5_0: L_3_0_1 + L_3_0_5 + y_CZ_3_1_5 + y_F_3_1_5 <= 2
CZ_F_Limit_3_1_5_1: L_3_1_1 + L_3_1_5 + y_CZ_3_1_5 + y_F_3_1_5 <= 2
CZ_F_Limit_3_1_5_2: L_3_2_1 + L_3_2_5 + y_CZ_3_1_5 + y_F_3_1_5 <= 2
CZ_F_Limit_3_1_5_3: L_3_3_1 + L_3_3_5 + y_CZ_3_1_5 + y_F_3_1_5 <= 2
CZ_F_Limit_3_1_5_4: L_3_4_1 + L_3_4_5 + y_CZ_3_1_5 + y_F_3_1_5 <= 2
CZ_F_Limit_3_1_5_5: L_3_5_1 + L_3_5_5 + y_CZ_3_1_5 + y_F_3_1_5 <= 2
CZ_F_Limit_3_2_0_0: L_3_0_0 + L_3_0_2 + y_CZ_3_2_0 + y_F_3_2_0 <= 2
CZ_F_Limit_3_2_0_1: L_3_1_0 + L_3_1_2 + y_CZ_3_2_0 + y_F_3_2_0 <= 2
CZ_F_Limit_3_2_0_2: L_3_2_0 + L_3_2_2 + y_CZ_3_2_0 + y_F_3_2_0 <= 2
CZ_F_Limit_3_2_0_3: L_3_3_0 + L_3_3_2 + y_CZ_3_2_0 + y_F_3_2_0 <= 2
CZ_F_Limit_3_2_0_4: L_3_4_0 + L_3_4_2 + y_CZ_3_2_0 + y_F_3_2_0 <= 2
CZ_F_Limit_3_2_0_5: L_3_5_0 + L_3_5_2 + y_CZ_3_2_0 + y_F_3_2_0 <= 2
CZ_F_Limit_3_2_1_0: L_3_0_1 + L_3_0_2 + y_CZ_3_2_1 + y_F_3_2_1 <= 2
CZ_F_Limit_3_2_1_1: L_3_1_1 + L_3_1_2 + y_CZ_3_2_1 + y_F_3_2_1 <= 2
CZ_F_Limit_3_2_1_2: L_3_2_1 + L_3_2_2 + y_CZ_3_2_1 + y_F_3_2_1 <= 2
CZ_F_Limit_3_2_1_3: L_3_3_1 + L_3_3_2 + y_CZ_3_2_1 + y_F_3_2_1 <= 2
CZ_F_Limit_3_2_1_4: L_3_4_1 + L_3_4_2 + y_CZ_3_2_1 + y_F_3_2_1 <= 2
CZ_F_Limit_3_2_1_5: L_3_5_1 + L_3_5_2 + y_CZ_3_2_1 + y_F_3_2_1 <= 2
CZ_F_Limit_3_2_2_0: 2 L_3_0_2 + y_CZ_3_2_2 + y_F_3_2_2 <= 2
CZ_F_Limit_3_2_2_1: 2 L_3_1_2 + y_CZ_3_2_2 + y_F_3_2_2 <= 2
CZ_F_Limit_3_2_2_2: 2 L_3_2_2 + y_CZ_3_2_2 + y_F_3_2_2 <= 2
CZ_F_Limit_3_2_2_3: 2 L_3_3_2 + y_CZ_3_2_2 + y_F_3_2_2 <= 2
CZ_F_Limit_3_2_2_4: 2 L_3_4_2 + y_CZ_3_2_2 + y_F_3_2_2 <= 2
CZ_F_Limit_3_2_2_5: 2 L_3_5_2 + y_CZ_3_2_2 + y_F_3_2_2 <= 2
CZ_F_Limit_3_2_3_0: L_3_0_2 + L_3_0_3 + y_CZ_3_2_3 + y_F_3_2_3 <= 2
CZ_F_Limit_3_2_3_1: L_3_1_2 + L_3_1_3 + y_CZ_3_2_3 + y_F_3_2_3 <= 2
CZ_F_Limit_3_2_3_2: L_3_2_2 + L_3_2_3 + y_CZ_3_2_3 + y_F_3_2_3 <= 2
CZ_F_Limit_3_2_3_3: L_3_3_2 + L_3_3_3 + y_CZ_3_2_3 + y_F_3_2_3 <= 2
CZ_F_Limit_3_2_3_4: L_3_4_2 + L_3_4_3 + y_CZ_3_2_3 + y_F_3_2_3 <= 2
CZ_F_Limit_3_2_3_5: L_3_5_2 + L_3_5_3 + y_CZ_3_2_3 + y_F_3_2_3 <= 2
CZ_F_Limit_3_2_4_0: L_3_0_2 + L_3_0_4 + y_CZ_3_2_4 + y_F_3_2_4 <= 2
CZ_F_Limit_3_2_4_1: L_3_1_2 + L_3_1_4 + y_CZ_3_2_4 + y_F_3_2_4 <= 2
CZ_F_Limit_3_2_4_2: L_3_2_2 + L_3_2_4 + y_CZ_3_2_4 + y_F_3_2_4 <= 2
CZ_F_Limit_3_2_4_3: L_3_3_2 + L_3_3_4 + y_CZ_3_2_4 + y_F_3_2_4 <= 2
CZ_F_Limit_3_2_4_4: L_3_4_2 + L_3_4_4 + y_CZ_3_2_4 + y_F_3_2_4 <= 2
CZ_F_Limit_3_2_4_5: L_3_5_2 + L_3_5_4 + y_CZ_3_2_4 + y_F_3_2_4 <= 2
CZ_F_Limit_3_2_5_0: L_3_0_2 + L_3_0_5 + y_CZ_3_2_5 + y_F_3_2_5 <= 2
CZ_F_Limit_3_2_5_1: L_3_1_2 + L_3_1_5 + y_CZ_3_2_5 + y_F_3_2_5 <= 2
CZ_F_Limit_3_2_5_2: L_3_2_2 + L_3_2_5 + y_CZ_3_2_5 + y_F_3_2_5 <= 2
CZ_F_Limit_3_2_5_3: L_3_3_2 + L_3_3_5 + y_CZ_3_2_5 + y_F_3_2_5 <= 2
CZ_F_Limit_3_2_5_4: L_3_4_2 + L_3_4_5 + y_CZ_3_2_5 + y_F_3_2_5 <= 2
CZ_F_Limit_3_2_5_5: L_3_5_2 + L_3_5_5 + y_CZ_3_2_5 + y_F_3_2_5 <= 2
CZ_F_Limit_3_3_0_0: L_3_0_0 + L_3_0_3 + y_CZ_3_3_0 + y_F_3_3_0 <= 2
CZ_F_Limit_3_3_0_1: L_3_1_0 + L_3_1_3 + y_CZ_3_3_0 + y_F_3_3_0 <= 2
CZ_F_Limit_3_3_0_2: L_3_2_0 + L_3_2_3 + y_CZ_3_3_0 + y_F_3_3_0 <= 2
CZ_F_Limit_3_3_0_3: L_3_3_0 + L_3_3_3 + y_CZ_3_3_0 + y_F_3_3_0 <= 2
CZ_F_Limit_3_3_0_4: L_3_4_0 + L_3_4_3 + y_CZ_3_3_0 + y_F_3_3_0 <= 2
CZ_F_Limit_3_3_0_5: L_3_5_0 + L_3_5_3 + y_CZ_3_3_0 + y_F_3_3_0 <= 2
CZ_F_Limit_3_3_1_0: L_3_0_1 + L_3_0_3 + y_CZ_3_3_1 + y_F_3_3_1 <= 2
CZ_F_Limit_3_3_1_1: L_3_1_1 + L_3_1_3 + y_CZ_3_3_1 + y_F_3_3_1 <= 2
CZ_F_Limit_3_3_1_2: L_3_2_1 + L_3_2_3 + y_CZ_3_3_1 + y_F_3_3_1 <= 2
CZ_F_Limit_3_3_1_3: L_3_3_1 + L_3_3_3 + y_CZ_3_3_1 + y_F_3_3_1 <= 2
CZ_F_Limit_3_3_1_4: L_3_4_1 + L_3_4_3 + y_CZ_3_3_1 + y_F_3_3_1 <= 2
CZ_F_Limit_3_3_1_5: L_3_5_1 + L_3_5_3 + y_CZ_3_3_1 + y_F_3_3_1 <= 2
CZ_F_Limit_3_3_2_0: L_3_0_2 + L_3_0_3 + y_CZ_3_3_2 + y_F_3_3_2 <= 2
CZ_F_Limit_3_3_2_1: L_3_1_2 + L_3_1_3 + y_CZ_3_3_2 + y_F_3_3_2 <= 2
CZ_F_Limit_3_3_2_2: L_3_2_2 + L_3_2_3 + y_CZ_3_3_2 + y_F_3_3_2 <= 2
CZ_F_Limit_3_3_2_3: L_3_3_2 + L_3_3_3 + y_CZ_3_3_2 + y_F_3_3_2 <= 2
CZ_F_Limit_3_3_2_4: L_3_4_2 + L_3_4_3 + y_CZ_3_3_2 + y_F_3_3_2 <= 2
CZ_F_Limit_3_3_2_5: L_3_5_2 + L_3_5_3 + y_CZ_3_3_2 + y_F_3_3_2 <= 2
CZ_F_Limit_3_3_3_0: 2 L_3_0_3 + y_CZ_3_3_3 + y_F_3_3_3 <= 2
CZ_F_Limit_3_3_3_1: 2 L_3_1_3 + y_CZ_3_3_3 + y_F_3_3_3 <= 2
CZ_F_Limit_3_3_3_2: 2 L_3_2_3 + y_CZ_3_3_3 + y_F_3_3_3 <= 2
CZ_F_Limit_3_3_3_3: 2 L_3_3_3 + y_CZ_3_3_3 + y_F_3_3_3 <= 2
CZ_F_Limit_3_3_3_4: 2 L_3_4_3 + y_CZ_3_3_3 + y_F_3_3_3 <= 2
CZ_F_Limit_3_3_3_5: 2 L_3_5_3 + y_CZ_3_3_3 + y_F_3_3_3 <= 2
CZ_F_Limit_3_3_4_0: L_3_0_3 + L_3_0_4 + y_CZ_3_3_4 + y_F_3_3_4 <= 2
CZ_F_Limit_3_3_4_1: L_3_1_3 + L_3_1_4 + y_CZ_3_3_4 + y_F_3_3_4 <= 2
CZ_F_Limit_3_3_4_2: L_3_2_3 + L_3_2_4 + y_CZ_3_3_4 + y_F_3_3_4 <= 2
CZ_F_Limit_3_3_4_3: L_3_3_3 + L_3_3_4 + y_CZ_3_3_4 + y_F_3_3_4 <= 2
CZ_F_Limit_3_3_4_4: L_3_4_3 + L_3_4_4 + y_CZ_3_3_4 + y_F_3_3_4 <= 2
CZ_F_Limit_3_3_4_5: L_3_5_3 + L_3_5_4 + y_CZ_3_3_4 + y_F_3_3_4 <= 2
CZ_F_Limit_3_3_5_0: L_3_0_3 + L_3_0_5 + y_CZ_3_3_5 + y_F_3_3_5 <= 2
CZ_F_Limit_3_3_5_1: L_3_1_3 + L_3_1_5 + y_CZ_3_3_5 + y_F_3_3_5 <= 2
CZ_F_Limit_3_3_5_2: L_3_2_3 + L_3_2_5 + y_CZ_3_3_5 + y_F_3_3_5 <= 2
CZ_F_Limit_3_3_5_3: L_3_3_3 + L_3_3_5 + y_CZ_3_3_5 + y_F_3_3_5 <= 2
CZ_F_Limit_3_3_5_4: L_3_4_3 + L_3_4_5 + y_CZ_3_3_5 + y_F_3_3_5 <= 2
CZ_F_Limit_3_3_5_5: L_3_5_3 + L_3_5_5 + y_CZ_3_3_5 + y_F_3_3_5 <= 2
CZ_F_Limit_3_4_0_0: L_3_0_0 + L_3_0_4 + y_CZ_3_4_0 + y_F_3_4_0 <= 2
CZ_F_Limit_3_4_0_1: L_3_1_0 + L_3_1_4 + y_CZ_3_4_0 + y_F_3_4_0 <= 2
CZ_F_Limit_3_4_0_2: L_3_2_0 + L_3_2_4 + y_CZ_3_4_0 + y_F_3_4_0 <= 2
CZ_F_Limit_3_4_0_3: L_3_3_0 + L_3_3_4 + y_CZ_3_4_0 + y_F_3_4_0 <= 2
CZ_F_Limit_3_4_0_4: L_3_4_0 + L_3_4_4 + y_CZ_3_4_0 + y_F_3_4_0 <= 2
CZ_F_Limit_3_4_0_5: L_3_5_0 + L_3_5_4 + y_CZ_3_4_0 + y_F_3_4_0 <= 2
CZ_F_Limit_3_4_1_0: L_3_0_1 + L_3_0_4 + y_CZ_3_4_1 + y_F_3_4_1 <= 2
CZ_F_Limit_3_4_1_1: L_3_1_1 + L_3_1_4 + y_CZ_3_4_1 + y_F_3_4_1 <= 2
CZ_F_Limit_3_4_1_2: L_3_2_1 + L_3_2_4 + y_CZ_3_4_1 + y_F_3_4_1 <= 2
CZ_F_Limit_3_4_1_3: L_3_3_1 + L_3_3_4 + y_CZ_3_4_1 + y_F_3_4_1 <= 2
CZ_F_Limit_3_4_1_4: L_3_4_1 + L_3_4_4 + y_CZ_3_4_1 + y_F_3_4_1 <= 2
CZ_F_Limit_3_4_1_5: L_3_5_1 + L_3_5_4 + y_CZ_3_4_1 + y_F_3_4_1 <= 2
CZ_F_Limit_3_4_2_0: L_3_0_2 + L_3_0_4 + y_CZ_3_4_2 + y_F_3_4_2 <= 2
CZ_F_Limit_3_4_2_1: L_3_1_2 + L_3_1_4 + y_CZ_3_4_2 + y_F_3_4_2 <= 2
CZ_F_Limit_3_4_2_2: L_3_2_2 + L_3_2_4 + y_CZ_3_4_2 + y_F_3_4_2 <= 2
CZ_F_Limit_3_4_2_3: L_3_3_2 + L_3_3_4 + y_CZ_3_4_2 + y_F_3_4_2 <= 2
CZ_F_Limit_3_4_2_4: L_3_4_2 + L_3_4_4 + y_CZ_3_4_2 + y_F_3_4_2 <= 2
CZ_F_Limit_3_4_2_5: L_3_5_2 + L_3_5_4 + y_CZ_3_4_2 + y_F_3_4_2 <= 2
CZ_F_Limit_3_4_3_0: L_3_0_3 + L_3_0_4 + y_CZ_3_4_3 + y_F_3_4_3 <= 2
CZ_F_Limit_3_4_3_1: L_3_1_3 + L_3_1_4 + y_CZ_3_4_3 + y_F_3_4_3 <= 2
CZ_F_Limit_3_4_3_2: L_3_2_3 + L_3_2_4 + y_CZ_3_4_3 + y_F_3_4_3 <= 2
CZ_F_Limit_3_4_3_3: L_3_3_3 + L_3_3_4 + y_CZ_3_4_3 + y_F_3_4_3 <= 2
CZ_F_Limit_3_4_3_4: L_3_4_3 + L_3_4_4 + y_CZ_3_4_3 + y_F_3_4_3 <= 2
CZ_F_Limit_3_4_3_5: L_3_5_3 + L_3_5_4 + y_CZ_3_4_3 + y_F_3_4_3 <= 2
CZ_F_Limit_3_4_4_0: 2 L_3_0_4 + y_CZ_3_4_4 + y_F_3_4_4 <= 2
CZ_F_Limit_3_4_4_1: 2 L_3_1_4 + y_CZ_3_4_4 + y_F_3_4_4 <= 2
CZ_F_Limit_3_4_4_2: 2 L_3_2_4 + y_CZ_3_4_4 + y_F_3_4_4 <= 2
CZ_F_Limit_3_4_4_3: 2 L_3_3_4 + y_CZ_3_4_4 + y_F_3_4_4 <= 2
CZ_F_Limit_3_4_4_4: 2 L_3_4_4 + y_CZ_3_4_4 + y_F_3_4_4 <= 2
CZ_F_Limit_3_4_4_5: 2 L_3_5_4 + y_CZ_3_4_4 + y_F_3_4_4 <= 2
CZ_F_Limit_3_4_5_0: L_3_0_4 + L_3_0_5 + y_CZ_3_4_5 + y_F_3_4_5 <= 2
CZ_F_Limit_3_4_5_1: L_3_1_4 + L_3_1_5 + y_CZ_3_4_5 + y_F_3_4_5 <= 2
CZ_F_Limit_3_4_5_2: L_3_2_4 + L_3_2_5 + y_CZ_3_4_5 + y_F_3_4_5 <= 2
CZ_F_Limit_3_4_5_3: L_3_3_4 + L_3_3_5 + y_CZ_3_4_5 + y_F_3_4_5 <= 2
CZ_F_Limit_3_4_5_4: L_3_4_4 + L_3_4_5 + y_CZ_3_4_5 + y_F_3_4_5 <= 2
CZ_F_Limit_3_4_5_5: L_3_5_4 + L_3_5_5 + y_CZ_3_4_5 + y_F_3_4_5 <= 2
CZ_F_Limit_3_5_0_0: L_3_0_0 + L_3_0_5 + y_CZ_3_5_0 + y_F_3_5_0 <= 2
CZ_F_Limit_3_5_0_1: L_3_1_0 + L_3_1_5 + y_CZ_3_5_0 + y_F_3_5_0 <= 2
CZ_F_Limit_3_5_0_2: L_3_2_0 + L_3_2_5 + y_CZ_3_5_0 + y_F_3_5_0 <= 2
CZ_F_Limit_3_5_0_3: L_3_3_0 + L_3_3_5 + y_CZ_3_5_0 + y_F_3_5_0 <= 2
CZ_F_Limit_3_5_0_4: L_3_4_0 + L_3_4_5 + y_CZ_3_5_0 + y_F_3_5_0 <= 2
CZ_F_Limit_3_5_0_5: L_3_5_0 + L_3_5_5 + y_CZ_3_5_0 + y_F_3_5_0 <= 2
CZ_F_Limit_3_5_1_0: L_3_0_1 + L_3_0_5 + y_CZ_3_5_1 + y_F_3_5_1 <= 2
CZ_F_Limit_3_5_1_1: L_3_1_1 + L_3_1_5 + y_CZ_3_5_1 + y_F_3_5_1 <= 2
CZ_F_Limit_3_5_1_2: L_3_2_1 + L_3_2_5 + y_CZ_3_5_1 + y_F_3_5_1 <= 2
CZ_F_Limit_3_5_1_3: L_3_3_1 + L_3_3_5 + y_CZ_3_5_1 + y_F_3_5_1 <= 2
CZ_F_Limit_3_5_1_4: L_3_4_1 + L_3_4_5 + y_CZ_3_5_1 + y_F_3_5_1 <= 2
CZ_F_Limit_3_5_1_5: L_3_5_1 + L_3_5_5 + y_CZ_3_5_1 + y_F_3_5_1 <= 2
CZ_F_Limit_3_5_2_0: L_3_0_2 + L_3_0_5 + y_CZ_3_5_2 + y_F_3_5_2 <= 2
CZ_F_Limit_3_5_2_1: L_3_1_2 + L_3_1_5 + y_CZ_3_5_2 + y_F_3_5_2 <= 2
CZ_F_Limit_3_5_2_2: L_3_2_2 + L_3_2_5 + y_CZ_3_5_2 + y_F_3_5_2 <= 2
CZ_F_Limit_3_5_2_3: L_3_3_2 + L_3_3_5 + y_CZ_3_5_2 + y_F_3_5_2 <= 2
CZ_F_Limit_3_5_2_4: L_3_4_2 + L_3_4_5 + y_CZ_3_5_2 + y_F_3_5_2 <= 2
CZ_F_Limit_3_5_2_5: L_3_5_2 + L_3_5_5 + y_CZ_3_5_2 + y_F_3_5_2 <= 2
CZ_F_Limit_3_5_3_0: L_3_0_3 + L_3_0_5 + y_CZ_3_5_3 + y_F_3_5_3 <= 2
CZ_F_Limit_3_5_3_1: L_3_1_3 + L_3_1_5 + y_CZ_3_5_3 + y_F_3_5_3 <= 2
CZ_F_Limit_3_5_3_2: L_3_2_3 + L_3_2_5 + y_CZ_3_5_3 + y_F_3_5_3 <= 2
CZ_F_Limit_3_5_3_3: L_3_3_3 + L_3_3_5 + y_CZ_3_5_3 + y_F_3_5_3 <= 2
CZ_F_Limit_3_5_3_4: L_3_4_3 + L_3_4_5 + y_CZ_3_5_3 + y_F_3_5_3 <= 2
CZ_F_Limit_3_5_3_5: L_3_5_3 + L_3_5_5 + y_CZ_3_5_3 + y_F_3_5_3 <= 2
CZ_F_Limit_3_5_4_0: L_3_0_4 + L_3_0_5 + y_CZ_3_5_4 + y_F_3_5_4 <= 2
CZ_F_Limit_3_5_4_1: L_3_1_4 + L_3_1_5 + y_CZ_3_5_4 + y_F_3_5_4 <= 2
CZ_F_Limit_3_5_4_2: L_3_2_4 + L_3_2_5 + y_CZ_3_5_4 + y_F_3_5_4 <= 2
CZ_F_Limit_3_5_4_3: L_3_3_4 + L_3_3_5 + y_CZ_3_5_4 + y_F_3_5_4 <= 2
CZ_F_Limit_3_5_4_4: L_3_4_4 + L_3_4_5 + y_CZ_3_5_4 + y_F_3_5_4 <= 2
CZ_F_Limit_3_5_4_5: L_3_5_4 + L_3_5_5 + y_CZ_3_5_4 + y_F_3_5_4 <= 2
CZ_F_Limit_3_5_5_0: 2 L_3_0_5 + y_CZ_3_5_5 + y_F_3_5_5 <= 2
CZ_F_Limit_3_5_5_1: 2 L_3_1_5 + y_CZ_3_5_5 + y_F_3_5_5 <= 2
CZ_F_Limit_3_5_5_2: 2 L_3_2_5 + y_CZ_3_5_5 + y_F_3_5_5 <= 2
CZ_F_Limit_3_5_5_3: 2 L_3_3_5 + y_CZ_3_5_5 + y_F_3_5_5 <= 2
CZ_F_Limit_3_5_5_4: 2 L_3_4_5 + y_CZ_3_5_5 + y_F_3_5_5 <= 2
CZ_F_Limit_3_5_5_5: 2 L_3_5_5 + y_CZ_3_5_5 + y_F_3_5_5 <= 2
DSU_Col_Sum_0_0: L_0_0_0 + L_0_1_0 + L_0_2_0 + L_0_3_0 + L_0_4_0 + L_0_5_0 = 1
DSU_Col_Sum_0_1: L_0_0_1 + L_0_1_1 + L_0_2_1 + L_0_3_1 + L_0_4_1 + L_0_5_1 = 1
DSU_Col_Sum_0_2: L_0_0_2 + L_0_1_2 + L_0_2_2 + L_0_3_2 + L_0_4_2 + L_0_5_2 = 1
DSU_Col_Sum_0_3: L_0_0_3 + L_0_1_3 + L_0_2_3 + L_0_3_3 + L_0_4_3 + L_0_5_3 = 1
DSU_Col_Sum_0_4: L_0_0_4 + L_0_1_4 + L_0_2_4 + L_0_3_4 + L_0_4_4 + L_0_5_4 = 1
DSU_Col_Sum_0_5: L_0_0_5 + L_0_1_5 + L_0_2_5 + L_0_3_5 + L_0_4_5 + L_0_5_5 = 1
DSU_Col_Sum_1_0: L_1_0_0 + L_1_1_0 + L_1_2_0 + L_1_3_0 + L_1_4_0 + L_1_5_0 = 1
DSU_Col_Sum_1_1: L_1_0_1 + L_1_1_1 + L_1_2_1 + L_1_3_1 + L_1_4_1 + L_1_5_1 = 1
DSU_Col_Sum_1_2: L_1_0_2 + L_1_1_2 + L_1_2_2 + L_1_3_2 + L_1_4_2 + L_1_5_2 = 1
DSU_Col_Sum_1_3: L_1_0_3 + L_1_1_3 + L_1_2_3 + L_1_3_3 + L_1_4_3 + L_1_5_3 = 1
DSU_Col_Sum_1_4: L_1_0_4 + L_1_1_4 + L_1_2_4 + L_1_3_4 + L_1_4_4 + L_1_5_4 = 1
DSU_Col_Sum_1_5: L_1_0_5 + L_1_1_5 + L_1_2_5 + L_1_3_5 + L_1_4_5 + L_1_5_5 = 1
DSU_Col_Sum_2_0: L_2_0_0 + L_2_1_0 + L_2_2_0 + L_2_3_0 + L_2_4_0 + L_2_5_0 = 1
DSU_Col_Sum_2_1: L_2_0_1 + L_2_1_1 + L_2_2_1 + L_2_3_1 + L_2_4_1 + L_2_5_1 = 1
DSU_Col_Sum_2_2: L_2_0_2 + L_2_1_2 + L_2_2_2 + L_2_3_2 + L_2_4_2 + L_2_5_2 = 1
DSU_Col_Sum_2_3: L_2_0_3 + L_2_1_3 + L_2_2_3 + L_2_3_3 + L_2_4_3 + L_2_5_3 = 1
DSU_Col_Sum_2_4: L_2_0_4 + L_2_1_4 + L_2_2_4 + L_2_3_4 + L_2_4_4 + L_2_5_4 = 1
DSU_Col_Sum_2_5: L_2_0_5 + L_2_1_5 + L_2_2_5 + L_2_3_5 + L_2_4_5 + L_2_5_5 = 1
DSU_Col_Sum_3_0: L_3_0_0 + L_3_1_0 + L_3_2_0 + L_3_3_0 + L_3_4_0 + L_3_5_0 = 1
DSU_Col_Sum_3_1: L_3_0_1 + L_3_1_1 + L_3_2_1 + L_3_3_1 + L_3_4_1 + L_3_5_1 = 1
DSU_Col_Sum_3_2: L_3_0_2 + L_3_1_2 + L_3_2_2 + L_3_3_2 + L_3_4_2 + L_3_5_2 = 1
DSU_Col_Sum_3_3: L_3_0_3 + L_3_1_3 + L_3_2_3 + L_3_3_3 + L_3_4_3 + L_3_5_3 = 1
DSU_Col_Sum_3_4: L_3_0_4 + L_3_1_4 + L_3_2_4 + L_3_3_4 + L_3_4_4 + L_3_5_4 = 1
DSU_Col_Sum_3_5: L_3_0_5 + L_3_1_5 + L_3_2_5 + L_3_3_5 + L_3_4_5 + L_3_5_5 = 1
DSU_Col_Sum_4_0: L_4_0_0 + L_4_1_0 + L_4_2_0 + L_4_3_0 + L_4_4_0 + L_4_5_0 = 1
DSU_Col_Sum_4_1: L_4_0_1 + L_4_1_1 + L_4_2_1 + L_4_3_1 + L_4_4_1 + L_4_5_1 = 1
DSU_Col_Sum_4_2: L_4_0_2 + L_4_1_2 + L_4_2_2 + L_4_3_2 + L_4_4_2 + L_4_5_2 = 1
DSU_Col_Sum_4_3: L_4_0_3 + L_4_1_3 + L_4_2_3 + L_4_3_3 + L_4_4_3 + L_4_5_3 = 1
DSU_Col_Sum_4_4: L_4_0_4 + L_4_1_4 + L_4_2_4 + L_4_3_4 + L_4_4_4 + L_4_5_4 = 1
DSU_Col_Sum_4_5: L_4_0_5 + L_4_1_5 + L_4_2_5 + L_4_3_5 + L_4_4_5 + L_4_5_5 = 1
DSU_Diag_0_0_0: 0 L_0_0_0 <= 0
DSU_Diag_0_0_1: - L_0_0_0 + L_0_0_1 <= 0
DSU_Diag_0_0_2: - L_0_0_0 + L_0_0_2 <= 0
DSU_Diag_0_0_3: - L_0_0_0 + L_0_0_3 <= 0
DSU_Diag_0_0_4: - L_0_0_0 + L_0_0_4 <= 0
DSU_Diag_0_0_5: - L_0_0_0 + L_0_0_5 <= 0
DSU_Diag_0_1_0: L_0_1_0 - L_0_1_1 <= 0
DSU_Diag_0_1_1: 0 L_0_1_1 <= 0
DSU_Diag_0_1_2: - L_0_1_1 + L_0_1_2 <= 0
DSU_Diag_0_1_3: - L_0_1_1 + L_0_1_3 <= 0
DSU_Diag_0_1_4: - L_0_1_1 + L_0_1_4 <= 0
DSU_Diag_0_1_5: - L_0_1_1 + L_0_1_5 <= 0
DSU_Diag_0_2_0: L_0_2_0 - L_0_2_2 <= 0
DSU_Diag_0_2_1: L_0_2_1 - L_0_2_2 <= 0
DSU_Diag_0_2_2: 0 L_0_2_2 <= 0
DSU_Diag_0_2_3: - L_0_2_2 + L_0_2_3 <= 0
DSU_Diag_0_2_4: - L_0_2_2 + L_0_2_4 <= 0
DSU_Diag_0_2_5: - L_0_2_2 + L_0_2_5 <= 0
DSU_Diag_0_3_0: L_0_3_0 - L_0_3_3 <= 0
DSU_Diag_0_3_1: L_0_3_1 - L_0_3_3 <= 0
DSU_Diag_0_3_2: L_0_3_2 - L_0_3_3 <= 0
DSU_Diag_0_3_3: 0 L_0_3_3 <= 0
DSU_Diag_0_3_4: - L_0_3_3 + L_0_3_4 <= 0
DSU_Diag_0_3_5: - L_0_3_3 + L_0_3_5 <= 0
DSU_Diag_0_4_0: L_0_4_0 - L_0_4_4 <= 0
DSU_Diag_0_4_1: L_0_4_1 - L_0_4_4 <= 0
DSU_Diag_0_4_2: L_0_4_2 - L_0_4_4 <= 0
DSU_Diag_0_4_3: L_0_4_3 - L_0_4_4 <= 0
DSU_Diag_0_4_4: 0 L_0_4_4 <= 0
DSU_Diag_0_4_5: - L_0_4_4 + L_0_4_5 <= 0
DSU_Diag_0_5_0: L_0_5_0 - L_0_5_5 <= 0
DSU_Diag_0_5_1: L_0_5_1 - L_0_5_5 <= 0
DSU_Diag_0_5_2: L_0_5_2 - L_0_5_5 <= 0
DSU_Diag_0_5_3: L_0_5_3 - L_0_5_5 <= 0
DSU_Diag_0_5_4: L_0_5_4 - L_0_5_5 <= 0
DSU_Diag_0_5_5: 0 L_0_5_5 <= 0
DSU_Diag_1_0_0: 0 L_1_0_0 <= 0
DSU_Diag_1_0_1: - L_1_0_0 + L_1_0_1 <= 0
DSU_Diag_1_0_2: - L_1_0_0 + L_1_0_2 <= 0
DSU_Diag_1_0_3: - L_1_0_0 + L_1_0_3 <= 0
DSU_Diag_1_0_4: - L_1_0_0 + L_1_0_4 <= 0
DSU_Diag_1_0_5: - L_1_0_0 + L_1_0_5 <= 0
DSU_Diag_1_1_0: L_1_1_0 - L_1_1_1 <= 0
DSU_Diag_1_1_1: 0 L_1_1_1 <= 0
DSU_Diag_1_1_2: - L_1_1_1 + L_1_1_2 <= 0
DSU_Diag_1_1_3: - L_1_1_1 + L_1_1_3 <= 0
DSU_Diag_1_1_4: - L_1_1_1 + L_1_1_4 <= 0
DSU_Diag_1_1_5: - L_1_1_1 + L_1_1_5 <= 0
DSU_Diag_1_2_0: L_1_2_0 - L_1_2_2 <= 0
DSU_Diag_1_2_1: L_1_2_1 - L_1_2_2 <= 0
DSU_Diag_1_2_2: 0 L_1_2_2 <= 0
DSU_Diag_1_2_3: - L_1_2_2 + L_1_2_3 <= 0
DSU_Diag_1_2_4: - L_1_2_2 + L_1_2_4 <= 0
DSU_Diag_1_2_5: - L_1_2_2 + L_1_2_5 <= 0
DSU_Diag_1_3_0: L_1_3_0 - L_1_3_3 <= 0
DSU_Diag_1_3_1: L_1_3_1 - L_1_3_3 <= 0
DSU_Diag_1_3_2: L_1_3_2 - L_1_3_3 <= 0
DSU_Diag_1_3_3: 0 L_1_3_3 <= 0
DSU_Diag_1_3_4: - L_1_3_3 + L_1_3_4 <= 0
DSU_Diag_1_3_5: - L_1_3_3 + L_1_3_5 <= 0
DSU_Diag_1_4_0: L_1_4_0 - L_1_4_4 <= 0
DSU_Diag_1_4_1: L_1_4_1 - L_1_4_4 <= 0
DSU_Diag_1_4_2: L_1_4_2 - L_1_4_4 <= 0
DSU_Diag_1_4_3: L_1_4_3 - L_1_4_4 <= 0
DSU_Diag_1_4_4: 0 L_1_4_4 <= 0
DSU_Diag_1_4_5: - L_1_4_4 + L_1_4_5 <= 0
DSU_Diag_1_5_0: L_1_5_0 - L_1_5_5 <= 0
DSU_Diag_1_5_1: L_1_5_1 - L_1_5_5 <= 0
DSU_Diag_1_5_2: L_1_5_2 - L_1_5_5 <= 0
DSU_Diag_1_5_3: L_1_5_3 - L_1_5_5 <= 0
DSU_Diag_1_5_4: L_1_5_4 - L_1_5_5 <= 0
DSU_Diag_1_5_5: 0 L_1_5_5 <= 0
DSU_Diag_2_0_0: 0 L_2_0_0 <= 0
DSU_Diag_2_0_1: - L_2_0_0 + L_2_0_1 <= 0
DSU_Diag_2_0_2: - L_2_0_0 + L_2_0_2 <= 0
DSU_Diag_2_0_3: - L_2_0_0 + L_2_0_3 <= 0
DSU_Diag_2_0_4: - L_2_0_0 + L_2_0_4 <= 0
DSU_Diag_2_0_5: - L_2_0_0 + L_2_0_5 <= 0
DSU_Diag_2_1_0: L_2_1_0 - L_2_1_1 <= 0
DSU_Diag_2_1_1: 0 L_2_1_1 <= 0
DSU_Diag_2_1_2: - L_2_1_1 + L_2_1_2 <= 0
DSU_Diag_2_1_3: - L_2_1_1 + L_2_1_3 <= 0
DSU_Diag_2_1_4: - L_2_1_1 + L_2_1_4 <= 0
DSU_Diag_2_1_5: - L_2_1_1 + L_2_1_5 <= 0
DSU_Diag_2_2_0: L_2_2_0 - L_2_2_2 <= 0
DSU_Diag_2_2_1: L_2_2_1 - L_2_2_2 <= 0
DSU_Diag_2_2_2: 0 L_2_2_2 <= 0
DSU_Diag_2_2_3: - L_2_2_2 + L_2_2_3 <= 0
DSU_Diag_2_2_4: - L_2_2_2 + L_2_2_4 <= 0
DSU_Diag_2_2_5: - L_2_2_2 + L_2_2_5 <= 0
DSU_Diag_2_3_0: L_2_3_0 - L_2_3_3 <= 0
DSU_Diag_2_3_1: L_2_3_1 - L_2_3_3 <= 0
DSU_Diag_2_3_2: L_2_3_2 - L_2_3_3 <= 0
DSU_Diag_2_3_3: 0 L_2_3_3 <= 0
DSU_Diag_2_3_4: - L_2_3_3 + L_2_3_4 <= 0
DSU_Diag_2_3_5: - L_2_3_3 + L_2_3_5 <= 0
DSU_Diag_2_4_0: L_2_4_0 - L_2_4_4 <= 0
DSU_Diag_2_4_1: L_2_4_1 - L_2_4_4 <= 0
DSU_Diag_2_4_2: L_2_4_2 - L_2_4_4 <= 0
DSU_Diag_2_4_3: L_2_4_3 - L_2_4_4 <= 0
DSU_Diag_2_4_4: 0 L_2_4_4 <= 0
DSU_Diag_2_4_5: - L_2_4_4 + L_2_4_5 <= 0
DSU_Diag_2_5_0: L_2_5_0 - L_2_5_5 <= 0
DSU_Diag_2_5_1: L_2_5_1 - L_2_5_5 <= 0
DSU_Diag_2_5_2: L_2_5_2 - L_2_5_5 <= 0
DSU_Diag_2_5_3: L_2_5_3 - L_2_5_5 <= 0
DSU_Diag_2_5_4: L_2_5_4 - L_2_5_5 <= 0
DSU_Diag_2_5_5: 0 L_2_5_5 <= 0
DSU_Diag_3_0_0: 0 L_3_0_0 <= 0
DSU_Diag_3_0_1: - L_3_0_0 + L_3_0_1 <= 0
DSU_Diag_3_0_2: - L_3_0_0 + L_3_0_2 <= 0
DSU_Diag_3_0_3: - L_3_0_0 + L_3_0_3 <= 0
DSU_Diag_3_0_4: - L_3_0_0 + L_3_0_4 <= 0
DSU_Diag_3_0_5: - L_3_0_0 + L_3_0_5 <= 0
DSU_Diag_3_1_0: L_3_1_0 - L_3_1_1 <= 0
DSU_Diag_3_1_1: 0 L_3_1_1 <= 0
DSU_Diag_3_1_2: - L_3_1_1 + L_3_1_2 <= 0
DSU_Diag_3_1_3: - L_3_1_1 + L_3_1_3 <= 0
DSU_Diag_3_1_4: - L_3_1_1 + L_3_1_4 <= 0
DSU_Diag_3_1_5: - L_3_1_1 + L_3_1_5 <= 0
DSU_Diag_3_2_0: L_3_2_0 - L_3_2_2 <= 0
DSU_Diag_3_2_1: L_3_2_1 - L_3_2_2 <= 0
DSU_Diag_3_2_2: 0 L_3_2_2 <= 0
DSU_Diag_3_2_3: - L_3_2_2 + L_3_2_3 <= 0
DSU_Diag_3_2_4: - L_3_2_2 + L_3_2_4 <= 0
DSU_Diag_3_2_5: - L_3_2_2 + L_3_2_5 <= 0
DSU_Diag_3_3_0: L_3_3_0 - L_3_3_3 <= 0
DSU_Diag_3_3_1: L_3_3_1 - L_3_3_3 <= 0
DSU_Diag_3_3_2: L_3_3_2 - L_3_3_3 <= 0
DSU_Diag_3_3_3: 0 L_3_3_3 <= 0
DSU_Diag_3_3_4: - L_3_3_3 + L_3_3_4 <= 0
DSU_Diag_3_3_5: - L_3_3_3 + L_3_3_5 <= 0
DSU_Diag_3_4_0: L_3_4_0 - L_3_4_4 <= 0
DSU_Diag_3_4_1: L_3_4_1 - L_3_4_4 <= 0
DSU_Diag_3_4_2: L_3_4_2 - L_3_4_4 <= 0
DSU_Diag_3_4_3: L_3_4_3 - L_3_4_4 <= 0
DSU_Diag_3_4_4: 0 L_3_4_4 <= 0
DSU_Diag_3_4_5: - L_3_4_4 + L_3_4_5 <= 0
DSU_Diag_3_5_0: L_3_5_0 - L_3_5_5 <= 0
DSU_Diag_3_5_1: L_3_5_1 - L_3_5_5 <= 0
DSU_Diag_3_5_2: L_3_5_2 - L_3_5_5 <= 0
DSU_Diag_3_5_3: L_3_5_3 - L_3_5_5 <= 0
DSU_Diag_3_5_4: L_3_5_4 - L_3_5_5 <= 0
DSU_Diag_3_5_5: 0 L_3_5_5 <= 0
DSU_Diag_4_0_0: 0 L_4_0_0 <= 0
DSU_Diag_4_0_1: - L_4_0_0 + L_4_0_1 <= 0
DSU_Diag_4_0_2: - L_4_0_0 + L_4_0_2 <= 0
DSU_Diag_4_0_3: - L_4_0_0 + L_4_0_3 <= 0
DSU_Diag_4_0_4: - L_4_0_0 + L_4_0_4 <= 0
DSU_Diag_4_0_5: - L_4_0_0 + L_4_0_5 <= 0
DSU_Diag_4_1_0: L_4_1_0 - L_4_1_1 <= 0
DSU_Diag_4_1_1: 0 L_4_1_1 <= 0
DSU_Diag_4_1_2: - L_4_1_1 + L_4_1_2 <= 0
DSU_Diag_4_1_3: - L_4_1_1 + L_4_1_3 <= 0
DSU_Diag_4_1_4: - L_4_1_1 + L_4_1_4 <= 0
DSU_Diag_4_1_5: - L_4_1_1 + L_4_1_5 <= 0
DSU_Diag_4_2_0: L_4_2_0 - L_4_2_2 <= 0
DSU_Diag_4_2_1: L_4_2_1 - L_4_2_2 <= 0
DSU_Diag_4_2_2: 0 L_4_2_2 <= 0
DSU_Diag_4_2_3: - L_4_2_2 + L_4_2_3 <= 0
DSU_Diag_4_2_4: - L_4_2_2 + L_4_2_4 <= 0
DSU_Diag_4_2_5: - L_4_2_2 + L_4_2_5 <= 0
DSU_Diag_4_3_0: L_4_3_0 - L_4_3_3 <= 0
DSU_Diag_4_3_1: L_4_3_1 - L_4_3_3 <= 0
DSU_Diag_4_3_2: L_4_3_2 - L_4_3_3 <= 0
DSU_Diag_4_3_3: 0 L_4_3_3 <= 0
DSU_Diag_4_3_4: - L_4_3_3 + L_4_3_4 <= 0
DSU_Diag_4_3_5: - L_4_3_3 + L_4_3_5 <= 0
DSU_Diag_4_4_0: L_4_4_0 - L_4_4_4 <= 0
DSU_Diag_4_4_1: L_4_4_1 - L_4_4_4 <= 0
DSU_Diag_4_4_2: L_4_4_2 - L_4_4_4 <= 0
DSU_Diag_4_4_3: L_4_4_3 - L_4_4_4 <= 0
DSU_Diag_4_4_4: 0 L_4_4_4 <= 0
DSU_Diag_4_4_5: - L_4_4_4 + L_4_4_5 <= 0
DSU_Diag_4_5_0: L_4_5_0 - L_4_5_5 <= 0
DSU_Diag_4_5_1: L_4_5_1 - L_4_5_5 <= 0
DSU_Diag_4_5_2: L_4_5_2 - L_4_5_5 <= 0
DSU_Diag_4_5_3: L_4_5_3 - L_4_5_5 <= 0
DSU_Diag_4_5_4: L_4_5_4 - L_4_5_5 <= 0
DSU_Diag_4_5_5: 0 L_4_5_5 <= 0
DSU_Mono_0_0_0: 0 L_0_0_0 + 0 L_1_0_0 <= 0
DSU_Mono_0_0_1: - L_0_0_0 + L_0_0_1 + L_1_0_0 - L_1_0_1 <= 0
DSU_Mono_0_0_2: - L_0_0_0 + L_0_0_2 + L_1_0_0 - L_1_0_2 <= 0
DSU_Mono_0_0_3: - L_0_0_0 + L_0_0_3 + L_1_0_0 - L_1_0_3 <= 0
DSU_Mono_0_0_4: - L_0_0_0 + L_0_0_4 + L_1_0_0 - L_1_0_4 <= 0
DSU_Mono_0_0_5: - L_0_0_0 + L_0_0_5 + L_1_0_0 - L_1_0_5 <= 0
DSU_Mono_0_1_0: L_0_1_0 - L_0_1_1 - L_1_1_0 + L_1_1_1 <= 0
DSU_Mono_0_1_1: 0 L_0_1_1 + 0 L_1_1_1 <= 0
DSU_Mono_0_1_2: - L_0_1_1 + L_0_1_2 + L_1_1_1 - L_1_1_2 <= 0
DSU_Mono_0_1_3: - L_0_1_1 + L_0_1_3 + L_1_1_1 - L_1_1_3 <= 0
DSU_Mono_0_1_4: - L_0_1_1 + L_0_1_4 + L_1_1_1 - L_1_1_4 <= 0
DSU_Mono_0_1_5: - L_0_1_1 + L_0_1_5 + L_1_1_1 - L_1_1_5 <= 0
DSU_Mono_0_2_0: L_0_2_0 - L_0_2_2 - L_1_2_0 + L_1_2_2 <= 0
DSU_Mono_0_2_1: L_0_2_1 - L_0_2_2 - L_1_2_1 + L_1_2_2 <= 0
DSU_Mono_0_2_2: 0 L_0_2_2 + 0 L_1_2_2 <= 0
DSU_Mono_0_2_3: - L_0_2_2 + L_0_2_3 + L_1_2_2 - L_1_2_3 <= 0
DSU_Mono_0_2_4: - L_0_2_2 + L_0_2_4 + L_1_2_2 - L_1_2_4 <= 0
DSU_Mono_0_2_5: - L_0_2_2 + L_0_2_5 + L_1_2_2 - L_1_2_5 <= 0
DSU_Mono_0_3_0: L_0_3_0 - L_0_3_3 - L_1_3_0 + L_1_3_3 <= 0
DSU_Mono_0_3_1: L_0_3_1 - L_0_3_3 - L_1_3_1 + L_1_3_3 <= 0
DSU_Mono_0_3_2: L_0_3_2 - L_0_3_3 - L_1_3_2 + L_1_3_3 <= 0
DSU_Mono_0_3_3: 0 L_0_3_3 + 0 L_1_3_3 <= 0
DSU_Mono_0_3_4: - L_0_3_3 + L_0_3_4 + L_1_3_3 - L_1_3_4 <= 0
DSU_Mono_0_3_5: - L_0_3_3 + L_0_3_5 + L_1_3_3 - L_1_3_5 <= 0
DSU_Mono_0_4_0: L_0_4_0 - L_0_4_4 - L_1_4_0 + L_1_4_4 <= 0
DSU_Mono_0_4_1: L_0_4_1 - L_0_4_4 - L_1_4_1 + L_1_4_4 <= 0
DSU_Mono_0_4_2: L_0_4_2 - L_0_4_4 - L_1_4_2 + L_1_4_4 <= 0
DSU_Mono_0_4_3: L_0_4_3 - L_0_4_4 - L_1_4_3 + L_1_4_4 <= 0
DSU_Mono_0_4_4: 0 L_0_4_4 + 0 L_1_4_4 <= 0
DSU_Mono_0_4_5: - L_0_4_4 + L_0_4_5 + L_1_4_4 - L_1_4_5 <= 0
DSU_Mono_0_5_0: L_0_5_0 - L_0_5_5 - L_1_5_0 + L_1_5_5 <= 0
DSU_Mono_0_5_1: L_0_5_1 - L_0_5_5 - L_1_5_1 + L_1_5_5 <= 0
DSU_Mono_0_5_2: L_0_5_2 - L_0_5_5 - L_1_5_2 + L_1_5_5 <= 0
DSU_Mono_0_5_3: L_0_5_3 - L_0_5_5 - L_1_5_3 + L_1_5_5 <= 0
DSU_Mono_0_5_4: L_0_5_4 - L_0_5_5 - L_1_5_4 + L_1_5_5 <= 0
DSU_Mono_0_5_5: 0 L_0_5_5 + 0 L_1_5_5 <= 0
DSU_Mono_1_0_0: 0 L_1_0_0 + 0 L_2_0_0 <= 0
DSU_Mono_1_0_1: - L_1_0_0 + L_1_0_1 + L_2_0_0 - L_2_0_1 <= 0
DSU_Mono_1_0_2: - L_1_0_0 + L_1_0_2 + L_2_0_0 - L_2_0_2 <= 0
DSU_Mono_1_0_3: - L_1_0_0 + L_1_0_3 + L_2_0_0 - L_2_0_3 <= 0
DSU_Mono_1_0_4: - L_1_0_0 + L_1_0_4 + L_2_0_0 - L_2_0_4 <= 0
DSU_Mono_1_0_5: - L_1_0_0 + L_1_0_5 + L_2_0_0 - L_2_0_5 <= 0
DSU_Mono_1_1_0: L_1_1_0 - L_1_1_1 - L_2_1_0 + L_2_1_1 <= 0
DSU_Mono_1_1_1: 0 L_1_1_1 + 0 L_2_1_1 <= 0
DSU_Mono_1_1_2: - L_1_1_1 + L_1_1_2 + L_2_1_1 - L_2_1_2 <= 0
DSU_Mono_1_1_3: - L_1_1_1 + L_1_1_3 + L_2_1_1 - L_2_1_3 <= 0
DSU_Mono_1_1_4: - L_1_1_1 + L_1_1_4 + L_2_1_1 - L_2_1_4 <= 0
DSU_Mono_1_1_5: - L_1_1_1 + L_1_1_5 + L_2_1_1 - L_2_1_5 <= 0
DSU_Mono_1_2_0: L_1_2_0 - L_1_2_2 - L_2_2_0 + L_2_2_2 <= 0
DSU_Mono_1_2_1: L_1_2_1 - L_1_2_2 - L_2_2_1 + L_2_2_2 <= 0
DSU_Mono_1_2_2: 0 L_1_2_2 + 0 L_2_2_2 <= 0
DSU_Mono_1_2_3: - L_1_2_2 + L_1_2_3 + L_2_2_2 - L_2_2_3 <= 0
DSU_Mono_1_2_4: - L_1_2_2 + L_1_2_4 + L_2_2_2 - L_2_2_4 <= 0
DSU_Mono_1_2_5: - L_1_2_2 + L_1_2_5 + L_2_2_2 - L_2_2_5 <= 0
DSU_Mono_1_3_0: L_1_3_0 - L_1_3_3 - L_2_3_0 + L_2_3_3 <= 0
DSU_Mono_1_3_1: L_1_3_1 - L_1_3_3 - L_2_3_1 + L_2_3_3 <= 0
DSU_Mono_1_3_2: L_1_3_2 - L_1_3_3 - L_2_3_2 + L_2_3_3 <= 0
DSU_Mono_1_3_3: 0 L_1_3_3 + 0 L_2_3_3 <= 0
DSU_Mono_1_3_4: - L_1_3_3 + L_1_3_4 + L_2_3_3 - L_2_3_4 <= 0
DSU_Mono_1_3_5: - L_1_3_3 + L_1_3_5 + L_2_3_3 - L_2_3_5 <= 0
DSU_Mono_1_4_0: L_1_4_0 - L_1_4_4 - L_2_4_0 + L_2_4_4 <= 0
DSU_Mono_1_4_1: L_1_4_1 - L_1_4_4 - L_2_4_1 + L_2_4_4 <= 0
DSU_Mono_1_4_2: L_1_4_2 - L_1_4_4 - L_2_4_2 + L_2_4_4 <= 0
DSU_Mono_1_4_3: L_1_4_3 - L_1_4_4 - L_2_4_3 + L_2_4_4 <= 0
DSU_Mono_1_4_4: 0 L_1_4_4 + 0 L_2_4_4 <= 0
DSU_Mono_1_4_5: - L_1_4_4 + L_1_4_5 + L_2_4_4 - L_2_4_5 <= 0
DSU_Mono_1_5_0: L_1_5_0 - L_1_5_5 - L_2_5_0 + L_2_5_5 <= 0
DSU_Mono_1_5_1: L_1_5_1 - L_1_5_5 - L_2_5_1 + L_2_5_5 <= 0
DSU_Mono_1_5_2: L_1_5_2 - L_1_5_5 - L_2_5_2 + L_2_5_5 <= 0
DSU_Mono_1_5_3: L_1_5_3 - L_1_5_5 - L_2_5_3 + L_2_5_5 <= 0
DSU_Mono_1_5_4: L_1_5_4 - L_1_5_5 - L_2_5_4 + L_2_5_5 <= 0
DSU_Mono_1_5_5: 0 L_1_5_5 + 0 L_2_5_5 <= 0
DSU_Mono_2_0_0: 0 L_2_0_0 + 0 L_3_0_0 <= 0
DSU_Mono_2_0_1: - L_2_0_0 + L_2_0_1 + L_3_0_0 - L_3_0_1 <= 0
DSU_Mono_2_0_2: - L_2_0_0 + L_2_0_2 + L_3_0_0 - L_3_0_2 <= 0
DSU_Mono_2_0_3: - L_2_0_0 + L_2_0_3 + L_3_0_0 - L_3_0_3 <= 0
DSU_Mono_2_0_4: - L_2_0_0 + L_2_0_4 + L_3_0_0 - L_3_0_4 <= 0
DSU_Mono_2_0_5: - L_2_0_0 + L_2_0_5 + L_3_0_0 - L_3_0_5 <= 0
DSU_Mono_2_1_0: L_2_1_0 - L_2_1_1 - L_3_1_0 + L_3_1_1 <= 0
DSU_Mono_2_1_1: 0 L_2_1_1 + 0 L_3_1_1 <= 0
DSU_Mono_2_1_2: - L_2_1_1 + L_2_1_2 + L_3_1_1 - L_3_1_2 <= 0
DSU_Mono_2_1_3: - L_2_1_1 + L_2_1_3 + L_3_1_1 - L_3_1_3 <= 0
DSU_Mono_2_1_4: - L_2_1_1 + L_2_1_4 + L_3_1_1 - L_3_1_4 <= 0
DSU_Mono_2_1_5: - L_2_1_1 + L_2_1_5 + L_3_1_1 - L_3_1_5 <= 0
DSU_Mono_2_2_0: L_2_2_0 - L_2_2_2 - L_3_2_0 + L_3_2_2 <= 0
DSU_Mono_2_2_1: L_2_2_1 - L_2_2_2 - L_3_2_1 + L_3_2_2 <= 0
DSU_Mono_2_2_2: 0 L_2_2_2 + 0 L_3_2_2 <= 0
DSU_Mono_2_2_3: - L_2_2_2 + L_2_2_3 + L_3_2_2 - L_3_2_3 <= 0
DSU_Mono_2_2_4: - L_2_2_2 + L_2_2_4 + L_3_2_2 - L_3_2_4 <= 0
DSU_Mono_2_2_5: - L_2_2_2 + L_2_2_5 + L_3_2_2 - L_3_2_5 <= 0
DSU_Mono_2_3_0: L_2_3_0 - L_2_3_3 - L_3_3_0 + L_3_3_3 <= 0
DSU_Mono_2_3_1: L_2_3_1 - L_2_3_3 - L_3_3_1 + L_3_3_3 <= 0
DSU_Mono_2_3_2: L_2_3_2 - L_2_3_3 - L_3_3_2 + L_3_3_3 <= 0
DSU_Mono_2_3_3: 0 L_2_3_3 + 0 L_3_3_3 <= 0
DSU_Mono_2_3_4: - L_2_3_3 + L_2_3_4 + L_3_3_3 - L_3_3_4 <= 0
DSU_Mono_2_3_5: - L_2_3_3 + L_2_3_5 + L_3_3_3 - L_3_3_5 <= 0
DSU_Mono_2_4_0: L_2_4_0 - L_2_4_4 - L_3_4_0 + L_3_4_4 <= 0
DSU_Mono_2_4_1: L_2_4_1 - L_2_4_4 - L_3_4_1 + L_3_4_4 <= 0
DSU_Mono_2_4_2: L_2_4_2 - L_2_4_4 - L_3_4_2 + L_3_4_4 <= 0
DSU_Mono_2_4_3: L_2_4_3 - L_2_4_4 - L_3_4_3 + L_3_4_4 <= 0
DSU_Mono_2_4_4: 0 L_2_4_4 + 0 L_3_4_4 <= 0
DSU_Mono_2_4_5: - L_2_4_4 + L_2_4_5 + L_3_4_4 - L_3_4_5 <= 0
DSU_Mono_2_5_0: L_2_5_0 - L_2_5_5 - L_3_5_0 + L_3_5_5 <= 0
DSU_Mono_2_5_1: L_2_5_1 - L_2_5_5 - L_3_5_1 + L_3_5_5 <= 0
DSU_Mono_2_5_2: L_2_5_2 - L_2_5_5 - L_3_5_2 + L_3_5_5 <= 0
DSU_Mono_2_5_3: L_2_5_3 - L_2_5_5 - L_3_5_3 + L_3_5_5 <= 0
DSU_Mono_2_5_4: L_2_5_4 - L_2_5_5 - L_3_5_4 + L_3_5_5 <= 0
DSU_Mono_2_5_5: 0 L_2_5_5 + 0 L_3_5_5 <= 0
DSU_Mono_3_0_0: 0 L_3_0_0 + 0 L_4_0_0 <= 0
DSU_Mono_3_0_1: - L_3_0_0 + L_3_0_1 + L_4_0_0 - L_4_0_1 <= 0
DSU_Mono_3_0_2: - L_3_0_0 + L_3_0_2 + L_4_0_0 - L_4_0_2 <= 0
DSU_Mono_3_0_3: - L_3_0_0 + L_3_0_3 + L_4_0_0 - L_4_0_3 <= 0
DSU_Mono_3_0_4: - L_3_0_0 + L_3_0_4 + L_4_0_0 - L_4_0_4 <= 0
DSU_Mono_3_0_5: - L_3_0_0 + L_3_0_5 + L_4_0_0 - L_4_0_5 <= 0
DSU_Mono_3_1_0: L_3_1_0 - L_3_1_1 - L_4_1_0 + L_4_1_1 <= 0
DSU_Mono_3_1_1: 0 L_3_1_1 + 0 L_4_1_1 <= 0
DSU_Mono_3_1_2: - L_3_1_1 + L_3_1_2 + L_4_1_1 - L_4_1_2 <= 0
DSU_Mono_3_1_3: - L_3_1_1 + L_3_1_3 + L_4_1_1 - L_4_1_3 <= 0
DSU_Mono_3_1_4: - L_3_1_1 + L_3_1_4 + L_4_1_1 - L_4_1_4 <= 0
DSU_Mono_3_1_5: - L_3_1_1 + L_3_1_5 + L_4_1_1 - L_4_1_5 <= 0
DSU_Mono_3_2_0: L_3_2_0 - L_3_2_2 - L_4_2_0 + L_4_2_2 <= 0
DSU_Mono_3_2_1: L_3_2_1 - L_3_2_2 - L_4_2_1 + L_4_2_2 <= 0
DSU_Mono_3_2_2: 0 L_3_2_2 + 0 L_4_2_2 <= 0
DSU_Mono_3_2_3: - L_3_2_2 + L_3_2_3 + L_4_2_2 - L_4_2_3 <= 0
DSU_Mono_3_2_4: - L_3_2_2 + L_3_2_4 + L_4_2_2 - L_4_2_4 <= 0
DSU_Mono_3_2_5: - L_3_2_2 + L_3_2_5 + L_4_2_2 - L_4_2_5 <= 0
DSU_Mono_3_3_0: L_3_3_0 - L_3_3_3 - L_4_3_0 + L_4_3_3 <= 0
DSU_Mono_3_3_1: L_3_3_1 - L_3_3_3 - L_4_3_1 + L_4_3_3 <= 0
DSU_Mono_3_3_2: L_3_3_2 - L_3_3_3 - L_4_3_2 + L_4_3_3 <= 0
DSU_Mono_3_3_3: 0 L_3_3_3 + 0 L_4_3_3 <= 0
DSU_Mono_3_3_4: - L_3_3_3 + L_3_3_4 + L_4_3_3 - L_4_3_4 <= 0
DSU_Mono_3_3_5: - L_3_3_3 + L_3_3_5 + L_4_3_3 - L_4_3_5 <= 0
DSU_Mono_3_4_0: L_3_4_0 - L_3_4_4 - L_4_4_0 + L_4_4_4 <= 0
DSU_Mono_3_4_1: L_3_4_1 - L_3_4_4 - L_4_4_1 + L_4_4_4 <= 0
DSU_Mono_3_4_2: L_3_4_2 - L_3_4_4 - L_4_4_2 + L_4_4_4 <= 0
DSU_Mono_3_4_3: L_3_4_3 - L_3_4_4 - L_4_4_3 + L_4_4_4 <= 0
DSU_Mono_3_4_4: 0 L_3_4_4 + 0 L_4_4_4 <= 0
DSU_Mono_3_4_5: - L_3_4_4 + L_3_4_5 + L_4_4_4 - L_4_4_5 <= 0
DSU_Mono_3_5_0: L_3_5_0 - L_3_5_5 - L_4_5_0 + L_4_5_5 <= 0
DSU_Mono_3_5_1: L_3_5_1 - L_3_5_5 - L_4_5_1 + L_4_5_5 <= 0
DSU_Mono_3_5_2: L_3_5_2 - L_3_5_5 - L_4_5_2 + L_4_5_5 <= 0
DSU_Mono_3_5_3: L_3_5_3 - L_3_5_5 - L_4_5_3 + L_4_5_5 <= 0
DSU_Mono_3_5_4: L_3_5_4 - L_3_5_5 - L_4_5_4 + L_4_5_5 <= 0
DSU_Mono_3_5_5: 0 L_3_5_5 + 0 L_4_5_5 <= 0
Def_CZ_Active_0: - y_CZ_0_0_0 - y_CZ_0_0_1 - y_CZ_0_0_2 - y_CZ_0_0_3
 - y_CZ_0_0_4 - y_CZ_0_0_5 - y_CZ_0_1_0 - y_CZ_0_1_1 - y_CZ_0_1_2 - y_CZ_0_1_3
 - y_CZ_0_1_4 - y_CZ_0_1_5 - y_CZ_0_2_0 - y_CZ_0_2_1 - y_CZ_0_2_2 - y_CZ_0_2_3
 - y_CZ_0_2_4 - y_CZ_0_2_5 - y_CZ_0_3_0 - y_CZ_0_3_1 - y_CZ_0_3_2 - y_CZ_0_3_3
 - y_CZ_0_3_4 - y_CZ_0_3_5 - y_CZ_0_4_0 - y_CZ_0_4_1 - y_CZ_0_4_2 - y_CZ_0_4_3
 - y_CZ_0_4_4 - y_CZ_0_4_5 - y_CZ_0_5_0 - y_CZ_0_5_1 - y_CZ_0_5_2 - y_CZ_0_5_3
 - y_CZ_0_5_4 - y_CZ_0_5_5 + y_CZ_active_0 = 0
Def_CZ_Active_1: - y_CZ_1_0_0 - y_CZ_1_0_1 - y_CZ_1_0_2 - y_CZ_1_0_3
 - y_CZ_1_0_4 - y_CZ_1_0_5 - y_CZ_1_1_0 - y_CZ_1_1_1 - y_CZ_1_1_2 - y_CZ_1_1_3
 - y_CZ_1_1_4 - y_CZ_1_1_5 - y_CZ_1_2_0 - y_CZ_1_2_1 - y_CZ_1_2_2 - y_CZ_1_2_3
 - y_CZ_1_2_4 - y_CZ_1_2_5 - y_CZ_1_3_0 - y_CZ_1_3_1 - y_CZ_1_3_2 - y_CZ_1_3_3
 - y_CZ_1_3_4 - y_CZ_1_3_5 - y_CZ_1_4_0 - y_CZ_1_4_1 - y_CZ_1_4_2 - y_CZ_1_4_3
 - y_CZ_1_4_4 - y_CZ_1_4_5 - y_CZ_1_5_0 - y_CZ_1_5_1 - y_CZ_1_5_2 - y_CZ_1_5_3
 - y_CZ_1_5_4 - y_CZ_1_5_5 + y_CZ_active_1 = 0
Def_CZ_Active_2: - y_CZ_2_0_0 - y_CZ_2_0_1 - y_CZ_2_0_2 - y_CZ_2_0_3
 - y_CZ_2_0_4 - y_CZ_2_0_5 - y_CZ_2_1_0 - y_CZ_2_1_1 - y_CZ_2_1_2 - y_CZ_2_1_3
 - y_CZ_2_1_4 - y_CZ_2_1_5 - y_CZ_2_2_0 - y_CZ_2_2_1 - y_CZ_2_2_2 - y_CZ_2_2_3
 - y_CZ_2_2_4 - y_CZ_2_2_5 - y_CZ_2_3_0 - y_CZ_2_3_1 - y_CZ_2_3_2 - y_CZ_2_3_3
 - y_CZ_2_3_4 - y_CZ_2_3_5 - y_CZ_2_4_0 - y_CZ_2_4_1 - y_CZ_2_4_2 - y_CZ_2_4_3
 - y_CZ_2_4_4 - y_CZ_2_4_5 - y_CZ_2_5_0 - y_CZ_2_5_1 - y_CZ_2_5_2 - y_CZ_2_5_3
 - y_CZ_2_5_4 - y_CZ_2_5_5 + y_CZ_active_2 = 0
Def_CZ_Active_3: - y_CZ_3_0_0 - y_CZ_3_0_1 - y_CZ_3_0_2 - y_CZ_3_0_3
 - y_CZ_3_0_4 - y_CZ_3_0_5 - y_CZ_3_1_0 - y_CZ_3_1_1 - y_CZ_3_1_2 - y_CZ_3_1_3
 - y_CZ_3_1_4 - y_CZ_3_1_5 - y_CZ_3_2_0 - y_CZ_3_2_1 - y_CZ_3_2_2 - y_CZ_3_2_3
 - y_CZ_3_2_4 - y_CZ_3_2_5 - y_CZ_3_3_0 - y_CZ_3_3_1 - y_CZ_3_3_2 - y_CZ_3_3_3
 - y_CZ_3_3_4 - y_CZ_3_3_5 - y_CZ_3_4_0 - y_CZ_3_4_1 - y_CZ_3_4_2 - y_CZ_3_4_3
 - y_CZ_3_4_4 - y_CZ_3_4_5 - y_CZ_3_5_0 - y_CZ_3_5_1 - y_CZ_3_5_2 - y_CZ_3_5_3
 - y_CZ_3_5_4 - y_CZ_3_5_5 + y_CZ_active_3 = 0
Def_F_Active_0: - y_F_0_0_0 - y_F_0_0_1 - y_F_0_0_2 - y_F_0_0_3 - y_F_0_0_4
 - y_F_0_0_5 - y_F_0_1_0 - y_F_0_1_1 - y_F_0_1_2 - y_F_0_1_3 - y_F_0_1_4
 - y_F_0_1_5 - y_F_0_2_0 - y_F_0_2_1 - y_F_0_2_2 - y_F_0_2_3 - y_F_0_2_4
 - y_F_0_2_5 - y_F_0_3_0 - y_F_0_3_1 - y_F_0_3_2 - y_F_0_3_3 - y_F_0_3_4
 - y_F_0_3_5 - y_F_0_4_0 - y_F_0_4_1 - y_F_0_4_2 - y_F_0_4_3 - y_F_0_4_4
 - y_F_0_4_5 - y_F_0_5_0 - y_F_0_5_1 - y_F_0_5_2 - y_F_0_5_3 - y_F_0_5_4
 - y_F_0_5_5 + y_F_active_0 = 0
Def_F_Active_1: - y_F_1_0_0 - y_F_1_0_1 - y_F_1_0_2 - y_F_1_0_3 - y_F_1_0_4
 - y_F_1_0_5 - y_F_1_1_0 - y_F_1_1_1 - y_F_1_1_2 - y_F_1_1_3 - y_F_1_1_4
 - y_F_1_1_5 - y_F_1_2_0 - y_F_1_2_1 - y_F_1_2_2 - y_F_1_2_3 - y_F_1_2_4
 - y_F_1_2_5 - y_F_1_3_0 - y_F_1_3_1 - y_F_1_3_2 - y_F_1_3_3 - y_F_1_3_4
 - y_F_1_3_5 - y_F_1_4_0 - y_F_1_4_1 - y_F_1_4_2 - y_F_1_4_3 - y_F_1_4_4
 - y_F_1_4_5 - y_F_1_5_0 - y_F_1_5_1 - y_F_1_5_2 - y_F_1_5_3 - y_F_1_5_4
 - y_F_1_5_5 + y_F_active_1 = 0
Def_F_Active_2: - y_F_2_0_0 - y_F_2_0_1 - y_F_2_0_2 - y_F_2_0_3 - y_F_2_0_4
 - y_F_2_0_5 - y_F_2_1_0 - y_F_2_1_1 - y_F_2_1_2 - y_F_2_1_3 - y_F_2_1_4
 - y_F_2_1_5 - y_F_2_2_0 - y_F_2_2_1 - y_F_2_2_2 - y_F_2_2_3 - y_F_2_2_4
 - y_F_2_2_5 - y_F_2_3_0 - y_F_2_3_1 - y_F_2_3_2 - y_F_2_3_3 - y_F_2_3_4
 - y_F_2_3_5 - y_F_2_4_0 - y_F_2_4_1 - y_F_2_4_2 - y_F_2_4_3 - y_F_2_4_4
 - y_F_2_4_5 - y_F_2_5_0 - y_F_2_5_1 - y_F_2_5_2 - y_F_2_5_3 - y_F_2_5_4
 - y_F_2_5_5 + y_F_active_2 = 0
Def_F_Active_3: - y_F_3_0_0 - y_F_3_0_1 - y_F_3_0_2 - y_F_3_0_3 - y_F_3_0_4
 - y_F_3_0_5 - y_F_3_1_0 - y_F_3_1_1 - y_F_3_1_2 - y_F_3_1_3 - y_F_3_1_4
 - y_F_3_1_5 - y_F_3_2_0 - y_F_3_2_1 - y_F_3_2_2 - y_F_3_2_3 - y_F_3_2_4
 - y_F_3_2_5 - y_F_3_3_0 - y_F_3_3_1 - y_F_3_3_2 - y_F_3_3_3 - y_F_3_3_4
 - y_F_3_3_5 - y_F_3_4_0 - y_F_3_4_1 - y_F_3_4_2 - y_F_3_4_3 - y_F_3_4_4
 - y_F_3_4_5 - y_F_3_5_0 - y_F_3_5_1 - y_F_3_5_2 - y_F_3_5_3 - y_F_3_5_4
 - y_F_3_5_5 + y_F_active_3 = 0
Def_LC_Active_0: - y_LC_0_0 - y_LC_0_1 - y_LC_0_2 - y_LC_0_3 - y_LC_0_4
 - y_LC_0_5 + y_LC_active_0 = 0
Def_LC_Active_1: - y_LC_1_0 - y_LC_1_1 - y_LC_1_2 - y_LC_1_3 - y_LC_1_4
 - y_LC_1_5 + y_LC_active_1 = 0
Def_LC_Active_2: - y_LC_2_0 - y_LC_2_1 - y_LC_2_2 - y_LC_2_3 - y_LC_2_4
 - y_LC_2_5 + y_LC_active_2 = 0
Def_LC_Active_3: - y_LC_3_0 - y_LC_3_1 - y_LC_3_2 - y_LC_3_3 - y_LC_3_4
 - y_LC_3_5 + y_LC_active_3 = 0
Dummy_E_LB_0_0_0: E_0_0_0 - E_1_0_0 + y_dummy_0 <= 1
Dummy_E_LB_0_0_1: E_0_0_1 - E_1_0_1 + y_dummy_0 <= 1
Dummy_E_LB_0_0_2: E_0_0_2 - E_1_0_2 + y_dummy_0 <= 1
Dummy_E_LB_0_0_3: E_0_0_3 - E_1_0_3 + y_dummy_0 <= 1
Dummy_E_LB_0_0_4: E_0_0_4 - E_1_0_4 + y_dummy_0 <= 1
Dummy_E_LB_0_0_5: E_0_0_5 - E_1_0_5 + y_dummy_0 <= 1
Dummy_E_LB_0_1_1: E_0_1_1 - E_1_1_1 + y_dummy_0 <= 1
Dummy_E_LB_0_1_2: E_0_1_2 - E_1_1_2 + y_dummy_0 <= 1
Dummy_E_LB_0_1_3: E_0_1_3 - E_1_1_3 + y_dummy_0 <= 1
Dummy_E_LB_0_1_4: E_0_1_4 - E_1_1_4 + y_dummy_0 <= 1
Dummy_E_LB_0_1_5: E_0_1_5 - E_1_1_5 + y_dummy_0 <= 1
Dummy_E_LB_0_2_2: E_0_2_2 - E_1_2_2 + y_dummy_0 <= 1
Dummy_E_LB_0_2_3: E_0_2_3 - E_1_2_3 + y_dummy_0 <= 1
Dummy_E_LB_0_2_4: E_0_2_4 - E_1_2_4 + y_dummy_0 <= 1
Dummy_E_LB_0_2_5: E_0_2_5 - E_1_2_5 + y_dummy_0 <= 1
Dummy_E_LB_0_3_3: E_0_3_3 - E_1_3_3 + y_dummy_0 <= 1
Dummy_E_LB_0_3_4: E_0_3_4 - E_1_3_4 + y_dummy_0 <= 1
Dummy_E_LB_0_3_5: E_0_3_5 - E_1_3_5 + y_dummy_0 <= 1
Dummy_E_LB_0_4_4: E_0_4_4 - E_1_4_4 + y_dummy_0 <= 1
Dummy_E_LB_0_4_5: E_0_4_5 - E_1_4_5 + y_dummy_0 <= 1
Dummy_E_LB_0_5_5: E_0_5_5 - E_1_5_5 + y_dummy_0 <= 1
Dummy_E_LB_1_0_0: E_1_0_0 - E_2_0_0 + y_dummy_1 <= 1
Dummy_E_LB_1_0_1: E_1_0_1 - E_2_0_1 + y_dummy_1 <= 1
Dummy_E_LB_1_0_2: E_1_0_2 - E_2_0_2 + y_dummy_1 <= 1
Dummy_E_LB_1_0_3: E_1_0_3 - E_2_0_3 + y_dummy_1 <= 1
Dummy_E_LB_1_0_4: E_1_0_4 - E_2_0_4 + y_dummy_1 <= 1
Dummy_E_LB_1_0_5: E_1_0_5 - E_2_0_5 + y_dummy_1 <= 1
Dummy_E_LB_1_1_1: E_1_1_1 - E_2_1_1 + y_dummy_1 <= 1
Dummy_E_LB_1_1_2: E_1_1_2 - E_2_1_2 + y_dummy_1 <= 1
Dummy_E_LB_1_1_3: E_1_1_3 - E_2_1_3 + y_dummy_1 <= 1
Dummy_E_LB_1_1_4: E_1_1_4 - E_2_1_4 + y_dummy_1 <= 1
Dummy_E_LB_1_1_5: E_1_1_5 - E_2_1_5 + y_dummy_1 <= 1
Dummy_E_LB_1_2_2: E_1_2_2 - E_2_2_2 + y_dummy_1 <= 1
Dummy_E_LB_1_2_3: E_1_2_3 - E_2_2_3 + y_dummy_1 <= 1
Dummy_E_LB_1_2_4: E_1_2_4 - E_2_2_4 + y_dummy_1 <= 1
Dummy_E_LB_1_2_5: E_1_2_5 - E_2_2_5 + y_dummy_1 <= 1
Dummy_E_LB_1_3_3: E_1_3_3 - E_2_3_3 + y_dummy_1 <= 1
Dummy_E_LB_1_3_4: E_1_3_4 - E_2_3_4 + y_dummy_1 <= 1
Dummy_E_LB_1_3_5: E_1_3_5 - E_2_3_5 + y_dummy_1 <= 1
Dummy_E_LB_1_4_4: E_1_4_4 - E_2_4_4 + y_dummy_1 <= 1
Dummy_E_LB_1_4_5: E_1_4_5 - E_2_4_5 + y_dummy_1 <= 1
Dummy_E_LB_1_5_5: E_1_5_5 - E_2_5_5 + y_dummy_1 <= 1
Dummy_E_LB_2_0_0: E_2_0_0 - E_3_0_0 + y_dummy_2 <= 1
Dummy_E_LB_2_0_1: E_2_0_1 - E_3_0_1 + y_dummy_2 <= 1
Dummy_E_LB_2_0_2: E_2_0_2 - E_3_0_2 + y_dummy_2 <= 1
Dummy_E_LB_2_0_3: E_2_0_3 - E_3_0_3 + y_dummy_2 <= 1
Dummy_E_LB_2_0_4: E_2_0_4 - E_3_0_4 + y_dummy_2 <= 1
Dummy_E_LB_2_0_5: E_2_0_5 - E_3_0_5 + y_dummy_2 <= 1
Dummy_E_LB_2_1_1: E_2_1_1 - E_3_1_1 + y_dummy_2 <= 1
Dummy_E_LB_2_1_2: E_2_1_2 - E_3_1_2 + y_dummy_2 <= 1
Dummy_E_LB_2_1_3: E_2_1_3 - E_3_1_3 + y_dummy_2 <= 1
Dummy_E_LB_2_1_4: E_2_1_4 - E_3_1_4 + y_dummy_2 <= 1
Dummy_E_LB_2_1_5: E_2_1_5 - E_3_1_5 + y_dummy_2 <= 1
Dummy_E_LB_2_2_2: E_2_2_2 - E_3_2_2 + y_dummy_2 <= 1
Dummy_E_LB_2_2_3: E_2_2_3 - E_3_2_3 + y_dummy_2 <= 1
Dummy_E_LB_2_2_4: E_2_2_4 - E_3_2_4 + y_dummy_2 <= 1
Dummy_E_LB_2_2_5: E_2_2_5 - E_3_2_5 + y_dummy_2 <= 1
Dummy_E_LB_2_3_3: E_2_3_3 - E_3_3_3 + y_dummy_2 <= 1
Dummy_E_LB_2_3_4: E_2_3_4 - E_3_3_4 + y_dummy_2 <= 1
Dummy_E_LB_2_3_5: E_2_3_5 - E_3_3_5 + y_dummy_2 <= 1
Dummy_E_LB_2_4_4: E_2_4_4 - E_3_4_4 + y_dummy_2 <= 1
Dummy_E_LB_2_4_5: E_2_4_5 - E_3_4_5 + y_dummy_2 <= 1
Dummy_E_LB_2_5_5: E_2_5_5 - E_3_5_5 + y_dummy_2 <= 1
Dummy_E_LB_3_0_0: E_3_0_0 - E_4_0_0 + y_dummy_3 <= 1
Dummy_E_LB_3_0_1: E_3_0_1 - E_4_0_1 + y_dummy_3 <= 1
Dummy_E_LB_3_0_2: E_3_0_2 - E_4_0_2 + y_dummy_3 <= 1
Dummy_E_LB_3_0_3: E_3_0_3 - E_4_0_3 + y_dummy_3 <= 1
Dummy_E_LB_3_0_4: E_3_0_4 - E_4_0_4 + y_dummy_3 <= 1
Dummy_E_LB_3_0_5: E_3_0_5 - E_4_0_5 + y_dummy_3 <= 1
Dummy_E_LB_3_1_1: E_3_1_1 - E_4_1_1 + y_dummy_3 <= 1
Dummy_E_LB_3_1_2: E_3_1_2 - E_4_1_2 + y_dummy_3 <= 1
Dummy_E_LB_3_1_3: E_3_1_3 - E_4_1_3 + y_dummy_3 <= 1
Dummy_E_LB_3_1_4: E_3_1_4 - E_4_1_4 + y_dummy_3 <= 1
Dummy_E_LB_3_1_5: E_3_1_5 - E_4_1_5 + y_dummy_3 <= 1
Dummy_E_LB_3_2_2: E_3_2_2 - E_4_2_2 + y_dummy_3 <= 1
Dummy_E_LB_3_2_3: E_3_2_3 - E_4_2_3 + y_dummy_3 <= 1
Dummy_E_LB_3_2_4: E_3_2_4 - E_4_2_4 + y_dummy_3 <= 1
Dummy_E_LB_3_2_5: E_3_2_5 - E_4_2_5 + y_dummy_3 <= 1
Dummy_E_LB_3_3_3: E_3_3_3 - E_4_3_3 + y_dummy_3 <= 1
Dummy_E_LB_3_3_4: E_3_3_4 - E_4_3_4 + y_dummy_3 <= 1
Dummy_E_LB_3_3_5: E_3_3_5 - E_4_3_5 + y_dummy_3 <= 1
Dummy_E_LB_3_4_4: E_3_4_4 - E_4_4_4 + y_dummy_3 <= 1
Dummy_E_LB_3_4_5: E_3_4_5 - E_4_4_5 + y_dummy_3 <= 1
Dummy_E_LB_3_5_5: E_3_5_5 - E_4_5_5 + y_dummy_3 <= 1
Dummy_E_UB_0_0_0: - E_0_0_0 + E_1_0_0 + y_dummy_0 <= 1
Dummy_E_UB_0_0_1: - E_0_0_1 + E_1_0_1 + y_dummy_0 <= 1
Dummy_E_UB_0_0_2: - E_0_0_2 + E_1_0_2 + y_dummy_0 <= 1
Dummy_E_UB_0_0_3: - E_0_0_3 + E_1_0_3 + y_dummy_0 <= 1
Dummy_E_UB_0_0_4: - E_0_0_4 + E_1_0_4 + y_dummy_0 <= 1
Dummy_E_UB_0_0_5: - E_0_0_5 + E_1_0_5 + y_dummy_0 <= 1
Dummy_E_UB_0_1_1: - E_0_1_1 + E_1_1_1 + y_dummy_0 <= 1
Dummy_E_UB_0_1_2: - E_0_1_2 + E_1_1_2 + y_dummy_0 <= 1
Dummy_E_UB_0_1_3: - E_0_1_3 + E_1_1_3 + y_dummy_0 <= 1
Dummy_E_UB_0_1_4: - E_0_1_4 + E_1_1_4 + y_dummy_0 <= 1
Dummy_E_UB_0_1_5: - E_0_1_5 + E_1_1_5 + y_dummy_0 <= 1
Dummy_E_UB_0_2_2: - E_0_2_2 + E_1_2_2 + y_dummy_0 <= 1
Dummy_E_UB_0_2_3: - E_0_2_3 + E_1_2_3 + y_dummy_0 <= 1
Dummy_E_UB_0_2_4: - E_0_2_4 + E_1_2_4 + y_dummy_0 <= 1
Dummy_E_UB_0_2_5: - E_0_2_5 + E_1_2_5 + y_dummy_0 <= 1
Dummy_E_UB_0_3_3: - E_0_3_3 + E_1_3_3 + y_dummy_0 <= 1
Dummy_E_UB_0_3_4: - E_0_3_4 + E_1_3_4 + y_dummy_0 <= 1
Dummy_E_UB_0_3_5: - E_0_3_5 + E_1_3_5 + y_dummy_0 <= 1
Dummy_E_UB_0_4_4: - E_0_4_4 + E_1_4_4 + y_dummy_0 <= 1
Dummy_E_UB_0_4_5: - E_0_4_5 + E_1_4_5 + y_dummy_0 <= 1
Dummy_E_UB_0_5_5: - E_0_5_5 + E_1_5_5 + y_dummy_0 <= 1
Dummy_E_UB_1_0_0: - E_1_0_0 + E_2_0_0 + y_dummy_1 <= 1
Dummy_E_UB_1_0_1: - E_1_0_1 + E_2_0_1 + y_dummy_1 <= 1
Dummy_E_UB_1_0_2: - E_1_0_2 + E_2_0_2 + y_dummy_1 <= 1
Dummy_E_UB_1_0_3: - E_1_0_3 + E_2_0_3 + y_dummy_1 <= 1
Dummy_E_UB_1_0_4: - E_1_0_4 + E_2_0_4 + y_dummy_1 <= 1
Dummy_E_UB_1_0_5: - E_1_0_5 + E_2_0_5 + y_dummy_1 <= 1
Dummy_E_UB_1_1_1: - E_1_1_1 + E_2_1_1 + y_dummy_1 <= 1
Dummy_E_UB_1_1_2: - E_1_1_2 + E_2_1_2 + y_dummy_1 <= 1
Dummy_E_UB_1_1_3: - E_1_1_3 + E_2_1_3 + y_dummy_1 <= 1
Dummy_E_UB_1_1_4: - E_1_1_4 + E_2_1_4 + y_dummy_1 <= 1
Dummy_E_UB_1_1_5: - E_1_1_5 + E_2_1_5 + y_dummy_1 <= 1
Dummy_E_UB_1_2_2: - E_1_2_2 + E_2_2_2 + y_dummy_1 <= 1
Dummy_E_UB_1_2_3: - E_1_2_3 + E_2_2_3 + y_dummy_1 <= 1
Dummy_E_UB_1_2_4: - E_1_2_4 + E_2_2_4 + y_dummy_1 <= 1
Dummy_E_UB_1_2_5: - E_1_2_5 + E_2_2_5 + y_dummy_1 <= 1
Dummy_E_UB_1_3_3: - E_1_3_3 + E_2_3_3 + y_dummy_1 <= 1
Dummy_E_UB_1_3_4: - E_1_3_4 + E_2_3_4 + y_dummy_1 <= 1
Dummy_E_UB_1_3_5: - E_1_3_5 + E_2_3_5 + y_dummy_1 <= 1
Dummy_E_UB_1_4_4: - E_1_4_4 + E_2_4_4 + y_dummy_1 <= 1
Dummy_E_UB_1_4_5: - E_1_4_5 + E_2_4_5 + y_dummy_1 <= 1
Dummy_E_UB_1_5_5: - E_1_5_5 + E_2_5_5 + y_dummy_1 <= 1
Dummy_E_UB_2_0_0: - E_2_0_0 + E_3_0_0 + y_dummy_2 <= 1
Dummy_E_UB_2_0_1: - E_2_0_1 + E_3_0_1 + y_dummy_2 <= 1
Dummy_E_UB_2_0_2: - E_2_0_2 + E_3_0_2 + y_dummy_2 <= 1
Dummy_E_UB_2_0_3: - E_2_0_3 + E_3_0_3 + y_dummy_2 <= 1
Dummy_E_UB_2_0_4: - E_2_0_4 + E_3_0_4 + y_dummy_2 <= 1
Dummy_E_UB_2_0_5: - E_2_0_5 + E_3_0_5 + y_dummy_2 <= 1
Dummy_E_UB_2_1_1: - E_2_1_1 + E_3_1_1 + y_dummy_2 <= 1
Dummy_E_UB_2_1_2: - E_2_1_2 + E_3_1_2 + y_dummy_2 <= 1
Dummy_E_UB_2_1_3: - E_2_1_3 + E_3_1_3 + y_dummy_2 <= 1
Dummy_E_UB_2_1_4: - E_2_1_4 + E_3_1_4 + y_dummy_2 <= 1
Dummy_E_UB_2_1_5: - E_2_1_5 + E_3_1_5 + y_dummy_2 <= 1
Dummy_E_UB_2_2_2: - E_2_2_2 + E_3_2_2 + y_dummy_2 <= 1
Dummy_E_UB_2_2_3: - E_2_2_3 + E_3_2_3 + y_dummy_2 <= 1
Dummy_E_UB_2_2_4: - E_2_2_4 + E_3_2_4 + y_dummy_2 <= 1
Dummy_E_UB_2_2_5: - E_2_2_5 + E_3_2_5 + y_dummy_2 <= 1
Dummy_E_UB_2_3_3: - E_2_3_3 + E_3_3_3 + y_dummy_2 <= 1
Dummy_E_UB_2_3_4: - E_2_3_4 + E_3_3_4 + y_dummy_2 <= 1
Dummy_E_UB_2_3_5: - E_2_3_5 + E_3_3_5 + y_dummy_2 <= 1
Dummy_E_UB_2_4_4: - E_2_4_4 + E_3_4_4 + y_dummy_2 <= 1
Dummy_E_UB_2_4_5: - E_2_4_5 + E_3_4_5 + y_dummy_2 <= 1
Dummy_E_UB_2_5_5: - E_2_5_5 + E_3_5_5 + y_dummy_2 <= 1
Dummy_E_UB_3_0_0: - E_3_0_0 + E_4_0_0 + y_dummy_3 <= 1
Dummy_E_UB_3_0_1: - E_3_0_1 + E_4_0_1 + y_dummy_3 <= 1
Dummy_E_UB_3_0_2: - E_3_0_2 + E_4_0_2 + y_dummy_3 <= 1
Dummy_E_UB_3_0_3: - E_3_0_3 + E_4_0_3 + y_dummy_3 <= 1
Dummy_E_UB_3_0_4: - E_3_0_4 + E_4_0_4 + y_dummy_3 <= 1
Dummy_E_UB_3_0_5: - E_3_0_5 + E_4_0_5 + y_dummy_3 <= 1
Dummy_E_UB_3_1_1: - E_3_1_1 + E_4_1_1 + y_dummy_3 <= 1
Dummy_E_UB_3_1_2: - E_3_1_2 + E_4_1_2 + y_dummy_3 <= 1
Dummy_E_UB_3_1_3: - E_3_1_3 + E_4_1_3 + y_dummy_3 <= 1
Dummy_E_UB_3_1_4: - E_3_1_4 + E_4_1_4 + y_dummy_3 <= 1
Dummy_E_UB_3_1_5: - E_3_1_5 + E_4_1_5 + y_dummy_3 <= 1
Dummy_E_UB_3_2_2: - E_3_2_2 + E_4_2_2 + y_dummy_3 <= 1
Dummy_E_UB_3_2_3: - E_3_2_3 + E_4_2_3 + y_dummy_3 <= 1
Dummy_E_UB_3_2_4: - E_3_2_4 + E_4_2_4 + y_dummy_3 <= 1
Dummy_E_UB_3_2_5: - E_3_2_5 + E_4_2_5 + y_dummy_3 <= 1
Dummy_E_UB_3_3_3: - E_3_3_3 + E_4_3_3 + y_dummy_3 <= 1
Dummy_E_UB_3_3_4: - E_3_3_4 + E_4_3_4 + y_dummy_3 <= 1
Dummy_E_UB_3_3_5: - E_3_3_5 + E_4_3_5 + y_dummy_3 <= 1
Dummy_E_UB_3_4_4: - E_3_4_4 + E_4_4_4 + y_dummy_3 <= 1
Dummy_E_UB_3_4_5: - E_3_4_5 + E_4_4_5 + y_dummy_3 <= 1
Dummy_E_UB_3_5_5: - E_3_5_5 + E_4_5_5 + y_dummy_3 <= 1
Dummy_Mono_0: - y_dummy_0 + y_dummy_1 >= 0
Dummy_Mono_1: - y_dummy_1 + y_dummy_2 >= 0
Dummy_Mono_2: - y_dummy_2 + y_dummy_3 >= 0
E_CZ_F_Base_0_0_1: E_1_0_1 - y_CZ_0_0_1 - y_F_0_0_1 >= 0
E_CZ_F_Base_0_0_2: E_1_0_2 - y_CZ_0_0_2 - y_F_0_0_2 >= 0
E_CZ_F_Base_0_0_3: E_1_0_3 - y_CZ_0_0_3 - y_F_0_0_3 >= 0
E_CZ_F_Base_0_0_4: E_1_0_4 - y_CZ_0_0_4 - y_F_0_0_4 >= 0
E_CZ_F_Base_0_0_5: E_1_0_5 - y_CZ_0_0_5 - y_F_0_0_5 >= 0
E_CZ_F_Base_0_1_0: E_1_0_1 - y_CZ_0_1_0 - y_F_0_1_0 >= 0
E_CZ_F_Base_0_1_2: E_1_1_2 - y_CZ_0_1_2 - y_F_0_1_2 >= 0
E_CZ_F_Base_0_1_3: E_1_1_3 - y_CZ_0_1_3 - y_F_0_1_3 >= 0
E_CZ_F_Base_0_1_4: E_1_1_4 - y_CZ_0_1_4 - y_F_0_1_4 >= 0
E_CZ_F_Base_0_1_5: E_1_1_5 - y_CZ_0_1_5 - y_F_0_1_5 >= 0
E_CZ_F_Base_0_2_0: E_1_0_2 - y_CZ_0_2_0 - y_F_0_2_0 >= 0
E_CZ_F_Base_0_2_1: E_1_1_2 - y_CZ_0_2_1 - y_F_0_2_1 >= 0
E_CZ_F_Base_0_2_3: E_1_2_3 - y_CZ_0_2_3 - y_F_0_2_3 >= 0
E_CZ_F_Base_0_2_4: E_1_2_4 - y_CZ_0_2_4 - y_F_0_2_4 >= 0
E_CZ_F_Base_0_2_5: E_1_2_5 - y_CZ_0_2_5 - y_F_0_2_5 >= 0
E_CZ_F_Base_0_3_0: E_1_0_3 - y_CZ_0_3_0 - y_F_0_3_0 >= 0
E_CZ_F_Base_0_3_1: E_1_1_3 - y_CZ_0_3_1 - y_F_0_3_1 >= 0
E_CZ_F_Base_0_3_2: E_1_2_3 - y_CZ_0_3_2 - y_F_0_3_2 >= 0
E_CZ_F_Base_0_3_4: E_1_3_4 - y_CZ_0_3_4 - y_F_0_3_4 >= 0
E_CZ_F_Base_0_3_5: E_1_3_5 - y_CZ_0_3_5 - y_F_0_3_5 >= 0
E_CZ_F_Base_0_4_0: E_1_0_4 - y_CZ_0_4_0 - y_F_0_4_0 >= 0
E_CZ_F_Base_0_4_1: E_1_1_4 - y_CZ_0_4_1 - y_F_0_4_1 >= 0
E_CZ_F_Base_0_4_2: E_1_2_4 - y_CZ_0_4_2 - y_F_0_4_2 >= 0
E_CZ_F_Base_0_4_3: E_1_3_4 - y_CZ_0_4_3 - y_F_0_4_3 >= 0
E_CZ_F_Base_0_4_5: E_1_4_5 - y_CZ_0_4_5 - y_F_0_4_5 >= 0
E_CZ_F_Base_0_5_0: E_1_0_5 - y_CZ_0_5_0 - y_F_0_5_0 >= 0
E_CZ_F_Base_0_5_1: E_1_1_5 - y_CZ_0_5_1 - y_F_0_5_1 >= 0
E_CZ_F_Base_0_5_2: E_1_2_5 - y_CZ_0_5_2 - y_F_0_5_2 >= 0
E_CZ_F_Base_0_5_3: E_1_3_5 - y_CZ_0_5_3 - y_F_0_5_3 >= 0
E_CZ_F_Base_0_5_4: E_1_4_5 - y_CZ_0_5_4 - y_F_0_5_4 >= 0
E_CZ_F_Base_1_0_1: E_2_0_1 - y_CZ_1_0_1 - y_F_1_0_1 >= 0
E_CZ_F_Base_1_0_2: E_2_0_2 - y_CZ_1_0_2 - y_F_1_0_2 >= 0
E_CZ_F_Base_1_0_3: E_2_0_3 - y_CZ_1_0_3 - y_F_1_0_3 >= 0
E_CZ_F_Base_1_0_4: E_2_0_4 - y_CZ_1_0_4 - y_F_1_0_4 >= 0
E_CZ_F_Base_1_0_5: E_2_0_5 - y_CZ_1_0_5 - y_F_1_0_5 >= 0
E_CZ_F_Base_1_1_0: E_2_0_1 - y_CZ_1_1_0 - y_F_1_1_0 >= 0
E_CZ_F_Base_1_1_2: E_2_1_2 - y_CZ_1_1_2 - y_F_1_1_2 >= 0
E_CZ_F_Base_1_1_3: E_2_1_3 - y_CZ_1_1_3 - y_F_1_1_3 >= 0
E_CZ_F_Base_1_1_4: E_2_1_4 - y_CZ_1_1_4 - y_F_1_1_4 >= 0
E_CZ_F_Base_1_1_5: E_2_1_5 - y_CZ_1_1_5 - y_F_1_1_5 >= 0
E_CZ_F_Base_1_2_0: E_2_0_2 - y_CZ_1_2_0 - y_F_1_2_0 >= 0
E_CZ_F_Base_1_2_1: E_2_1_2 - y_CZ_1_2_1 - y_F_1_2_1 >= 0
E_CZ_F_Base_1_2_3: E_2_2_3 - y_CZ_1_2_3 - y_F_1_2_3 >= 0
E_CZ_F_Base_1_2_4: E_2_2_4 - y_CZ_1_2_4 - y_F_1_2_4 >= 0
E_CZ_F_Base_1_2_5: E_2_2_5 - y_CZ_1_2_5 - y_F_1_2_5 >= 0
E_CZ_F_Base_1_3_0: E_2_0_3 - y_CZ_1_3_0 - y_F_1_3_0 >= 0
E_CZ_F_Base_1_3_1: E_2_1_3 - y_CZ_1_3_1 - y_F_1_3_1 >= 0
E_CZ_F_Base_1_3_2: E_2_2_3 - y_CZ_1_3_2 - y_F_1_3_2 >= 0
E_CZ_F_Base_1_3_4: E_2_3_4 - y_CZ_1_3_4 - y_F_1_3_4 >= 0
E_CZ_F_Base_1_3_5: E_2_3_5 - y_CZ_1_3_5 - y_F_1_3_5 >= 0
E_CZ_F_Base_1_4_0: E_2_0_4 - y_CZ_1_4_0 - y_F_1_4_0 >= 0
E_CZ_F_Base_1_4_1: E_2_1_4 - y_CZ_1_4_1 - y_F_1_4_1 >= 0
E_CZ_F_Base_1_4_2: E_2_2_4 - y_CZ_1_4_2 - y_F_1_4_2 >= 0
E_CZ_F_Base_1_4_3: E_2_3_4 - y_CZ_1_4_3 - y_F_1_4_3 >= 0
E_CZ_F_Base_1_4_5: E_2_4_5 - y_CZ_1_4_5 - y_F_1_4_5 >= 0
E_CZ_F_Base_1_5_0: E_2_0_5 - y_CZ_1_5_0 - y_F_1_5_0 >= 0
E_CZ_F_Base_1_5_1: E_2_1_5 - y_CZ_1_5_1 - y_F_1_5_1 >= 0
E_CZ_F_Base_1_5_2: E_2_2_5 - y_CZ_1_5_2 - y_F_1_5_2 >= 0
E_CZ_F_Base_1_5_3: E_2_3_5 - y_CZ_1_5_3 - y_F_1_5_3 >= 0
E_CZ_F_Base_1_5_4: E_2_4_5 - y_CZ_1_5_4 - y_F_1_5_4 >= 0
E_CZ_F_Base_2_0_1: E_3_0_1 - y_CZ_2_0_1 - y_F_2_0_1 >= 0
E_CZ_F_Base_2_0_2: E_3_0_2 - y_CZ_2_0_2 - y_F_2_0_2 >= 0
E_CZ_F_Base_2_0_3: E_3_0_3 - y_CZ_2_0_3 - y_F_2_0_3 >= 0
E_CZ_F_Base_2_0_4: E_3_0_4 - y_CZ_2_0_4 - y_F_2_0_4 >= 0
E_CZ_F_Base_2_0_5: E_3_0_5 - y_CZ_2_0_5 - y_F_2_0_5 >= 0
E_CZ_F_Base_2_1_0: E_3_0_1 - y_CZ_2_1_0 - y_F_2_1_0 >= 0
E_CZ_F_Base_2_1_2: E_3_1_2 - y_CZ_2_1_2 - y_F_2_1_2 >= 0
E_CZ_F_Base_2_1_3: E_3_1_3 - y_CZ_2_1_3 - y_F_2_1_3 >= 0
E_CZ_F_Base_2_1_4: E_3_1_4 - y_CZ_2_1_4 - y_F_2_1_4 >= 0
E_CZ_F_Base_2_1_5: E_3_1_5 - y_CZ_2_1_5 - y_F_2_1_5 >= 0
E_CZ_F_Base_2_2_0: E_3_0_2 - y_CZ_2_2_0 - y_F_2_2_0 >= 0
E_CZ_F_Base_2_2_1: E_3_1_2 - y_CZ_2_2_1 - y_F_2_2_1 >= 0
E_CZ_F_Base_2_2_3: E_3_2_3 - y_CZ_2_2_3 - y_F_2_2_3 >= 0
E_CZ_F_Base_2_2_4: E_3_2_4 - y_CZ_2_2_4 - y_F_2_2_4 >= 0
E_CZ_F_Base_2_2_5: E_3_2_5 - y_CZ_2_2_5 - y_F_2_2_5 >= 0
E_CZ_F_Base_2_3_0: E_3_0_3 - y_CZ_2_3_0 - y_F_2_3_0 >= 0
E_CZ_F_Base_2_3_1: E_3_1_3 - y_CZ_2_3_1 - y_F_2_3_1 >= 0
E_CZ_F_Base_2_3_2: E_3_2_3 - y_CZ_2_3_2 - y_F_2_3_2 >= 0
E_CZ_F_Base_2_3_4: E_3_3_4 - y_CZ_2_3_4 - y_F_2_3_4 >= 0
E_CZ_F_Base_2_3_5: E_3_3_5 - y_CZ_2_3_5 - y_F_2_3_5 >= 0
E_CZ_F_Base_2_4_0: E_3_0_4 - y_CZ_2_4_0 - y_F_2_4_0 >= 0
E_CZ_F_Base_2_4_1: E_3_1_4 - y_CZ_2_4_1 - y_F_2_4_1 >= 0
E_CZ_F_Base_2_4_2: E_3_2_4 - y_CZ_2_4_2 - y_F_2_4_2 >= 0
E_CZ_F_Base_2_4_3: E_3_3_4 - y_CZ_2_4_3 - y_F_2_4_3 >= 0
E_CZ_F_Base_2_4_5: E_3_4_5 - y_CZ_2_4_5 - y_F_2_4_5 >= 0
E_CZ_F_Base_2_5_0: E_3_0_5 - y_CZ_2_5_0 - y_F_2_5_0 >= 0
E_CZ_F_Base_2_5_1: E_3_1_5 - y_CZ_2_5_1 - y_F_2_5_1 >= 0
E_CZ_F_Base_2_5_2: E_3_2_5 - y_CZ_2_5_2 - y_F_2_5_2 >= 0
E_CZ_F_Base_2_5_3: E_3_3_5 - y_CZ_2_5_3 - y_F_2_5_3 >= 0
E_CZ_F_Base_2_5_4: E_3_4_5 - y_CZ_2_5_4 - y_F_2_5_4 >= 0
E_CZ_F_Base_3_0_1: E_4_0_1 - y_CZ_3_0_1 - y_F_3_0_1 >= 0
E_CZ_F_Base_3_0_2: E_4_0_2 - y_CZ_3_0_2 - y_F_3_0_2 >= 0
E_CZ_F_Base_3_0_3: E_4_0_3 - y_CZ_3_0_3 - y_F_3_0_3 >= 0
E_CZ_F_Base_3_0_4: E_4_0_4 - y_CZ_3_0_4 - y_F_3_0_4 >= 0
E_CZ_F_Base_3_0_5: E_4_0_5 - y_CZ_3_0_5 - y_F_3_0_5 >= 0
E_CZ_F_Base_3_1_0: E_4_0_1 - y_CZ_3_1_0 - y_F_3_1_0 >= 0
E_CZ_F_Base_3_1_2: E_4_1_2 - y_CZ_3_1_2 - y_F_3_1_2 >= 0
E_CZ_F_Base_3_1_3: E_4_1_3 - y_CZ_3_1_3 - y_F_3_1_3 >= 0
E_CZ_F_Base_3_1_4: E_4_1_4 - y_CZ_3_1_4 - y_F_3_1_4 >= 0
E_CZ_F_Base_3_1_5: E_4_1_5 - y_CZ_3_1_5 - y_F_3_1_5 >= 0
E_CZ_F_Base_3_2_0: E_4_0_2 - y_CZ_3_2_0 - y_F_3_2_0 >= 0
E_CZ_F_Base_3_2_1: E_4_1_2 - y_CZ_3_2_1 - y_F_3_2_1 >= 0
E_CZ_F_Base_3_2_3: E_4_2_3 - y_CZ_3_2_3 - y_F_3_2_3 >= 0
E_CZ_F_Base_3_2_4: E_4_2_4 - y_CZ_3_2_4 - y_F_3_2_4 >= 0
E_CZ_F_Base_3_2_5: E_4_2_5 - y_CZ_3_2_5 - y_F_3_2_5 >= 0
E_CZ_F_Base_3_3_0: E_4_0_3 - y_CZ_3_3_0 - y_F_3_3_0 >= 0
E_CZ_F_Base_3_3_1: E_4_1_3 - y_CZ_3_3_1 - y_F_3_3_1 >= 0
E_CZ_F_Base_3_3_2: E_4_2_3 - y_CZ_3_3_2 - y_F_3_3_2 >= 0
E_CZ_F_Base_3_3_4: E_4_3_4 - y_CZ_3_3_4 - y_F_3_3_4 >= 0
E_CZ_F_Base_3_3_5: E_4_3_5 - y_CZ_3_3_5 - y_F_3_3_5 >= 0
E_CZ_F_Base_3_4_0: E_4_0_4 - y_CZ_3_4_0 - y_F_3_4_0 >= 0
E_CZ_F_Base_3_4_1: E_4_1_4 - y_CZ_3_4_1 - y_F_3_4_1 >= 0
E_CZ_F_Base_3_4_2: E_4_2_4 - y_CZ_3_4_2 - y_F_3_4_2 >= 0
E_CZ_F_Base_3_4_3: E_4_3_4 - y_CZ_3_4_3 - y_F_3_4_3 >= 0
E_CZ_F_Base_3_4_5: E_4_4_5 - y_CZ_3_4_5 - y_F_3_4_5 >= 0
E_CZ_F_Base_3_5_0: E_4_0_5 - y_CZ_3_5_0 - y_F_3_5_0 >= 0
E_CZ_F_Base_3_5_1: E_4_1_5 - y_CZ_3_5_1 - y_F_3_5_1 >= 0
E_CZ_F_Base_3_5_2: E_4_2_5 - y_CZ_3_5_2 - y_F_3_5_2 >= 0
E_CZ_F_Base_3_5_3: E_4_3_5 - y_CZ_3_5_3 - y_F_3_5_3 >= 0
E_CZ_F_Base_3_5_4: E_4_4_5 - y_CZ_3_5_4 - y_F_3_5_4 >= 0
E_Zero_Lower_0_0_0: E_0_0_0 = 0
E_Zero_Lower_0_1_0: E_0_1_0 = 0
E_Zero_Lower_0_1_1: E_0_1_1 = 0
E_Zero_Lower_0_2_0: E_0_2_0 = 0
E_Zero_Lower_0_2_1: E_0_2_1 = 0
E_Zero_Lower_0_2_2: E_0_2_2 = 0
E_Zero_Lower_0_3_0: E_0_3_0 = 0
E_Zero_Lower_0_3_1: E_0_3_1 = 0
E_Zero_Lower_0_3_2: E_0_3_2 = 0
E_Zero_Lower_0_3_3: E_0_3_3 = 0
E_Zero_Lower_0_4_0: E_0_4_0 = 0
E_Zero_Lower_0_4_1: E_0_4_1 = 0
E_Zero_Lower_0_4_2: E_0_4_2 = 0
E_Zero_Lower_0_4_3: E_0_4_3 = 0
E_Zero_Lower_0_4_4: E_0_4_4 = 0
E_Zero_Lower_0_5_0: E_0_5_0 = 0
E_Zero_Lower_0_5_1: E_0_5_1 = 0
E_Zero_Lower_0_5_2: E_0_5_2 = 0
E_Zero_Lower_0_5_3: E_0_5_3 = 0
E_Zero_Lower_0_5_4: E_0_5_4 = 0
E_Zero_Lower_0_5_5: E_0_5_5 = 0
E_Zero_Lower_1_0_0: E_1_0_0 = 0
E_Zero_Lower_1_1_0: E_1_1_0 = 0
E_Zero_Lower_1_1_1: E_1_1_1 = 0
E_Zero_Lower_1_2_0: E_1_2_0 = 0
E_Zero_Lower_1_2_1: E_1_2_1 = 0
E_Zero_Lower_1_2_2: E_1_2_2 = 0
E_Zero_Lower_1_3_0: E_1_3_0 = 0
E_Zero_Lower_1_3_1: E_1_3_1 = 0
E_Zero_Lower_1_3_2: E_1_3_2 = 0
E_Zero_Lower_1_3_3: E_1_3_3 = 0
E_Zero_Lower_1_4_0: E_1_4_0 = 0
E_Zero_Lower_1_4_1: E_1_4_1 = 0
E_Zero_Lower_1_4_2: E_1_4_2 = 0
E_Zero_Lower_1_4_3: E_1_4_3 = 0
E_Zero_Lower_1_4_4: E_1_4_4 = 0
E_Zero_Lower_1_5_0: E_1_5_0 = 0
E_Zero_Lower_1_5_1: E_1_5_1 = 0
E_Zero_Lower_1_5_2: E_1_5_2 = 0
E_Zero_Lower_1_5_3: E_1_5_3 = 0
E_Zero_Lower_1_5_4: E_1_5_4 = 0
E_Zero_Lower_1_5_5: E_1_5_5 = 0
E_Zero_Lower_2_0_0: E_2_0_0 = 0
E_Zero_Lower_2_1_0: E_2_1_0 = 0
E_Zero_Lower_2_1_1: E_2_1_1 = 0
E_Zero_Lower_2_2_0: E_2_2_0 = 0
E_Zero_Lower_2_2_1: E_2_2_1 = 0
E_Zero_Lower_2_2_2: E_2_2_2 = 0
E_Zero_Lower_2_3_0: E_2_3_0 = 0
E_Zero_Lower_2_3_1: E_2_3_1 = 0
E_Zero_Lower_2_3_2: E_2_3_2 = 0
E_Zero_Lower_2_3_3: E_2_3_3 = 0
E_Zero_Lower_2_4_0: E_2_4_0 = 0
E_Zero_Lower_2_4_1: E_2_4_1 = 0
E_Zero_Lower_2_4_2: E_2_4_2 = 0
E_Zero_Lower_2_4_3: E_2_4_3 = 0
E_Zero_Lower_2_4_4: E_2_4_4 = 0
E_Zero_Lower_2_5_0: E_2_5_0 = 0
E_Zero_Lower_2_5_1: E_2_5_1 = 0
E_Zero_Lower_2_5_2: E_2_5_2 = 0
E_Zero_Lower_2_5_3: E_2_5_3 = 0
E_Zero_Lower_2_5_4: E_2_5_4 = 0
E_Zero_Lower_2_5_5: E_2_5_5 = 0
E_Zero_Lower_3_0_0: E_3_0_0 = 0
E_Zero_Lower_3_1_0: E_3_1_0 = 0
E_Zero_Lower_3_1_1: E_3_1_1 = 0
E_Zero_Lower_3_2_0: E_3_2_0 = 0
E_Zero_Lower_3_2_1: E_3_2_1 = 0
E_Zero_Lower_3_2_2: E_3_2_2 = 0
E_Zero_Lower_3_3_0: E_3_3_0 = 0
E_Zero_Lower_3_3_1: E_3_3_1 = 0
E_Zero_Lower_3_3_2: E_3_3_2 = 0
E_Zero_Lower_3_3_3: E_3_3_3 = 0
E_Zero_Lower_3_4_0: E_3_4_0 = 0
E_Zero_Lower_3_4_1: E_3_4_1 = 0
E_Zero_Lower_3_4_2: E_3_4_2 = 0
E_Zero_Lower_3_4_3: E_3_4_3 = 0
E_Zero_Lower_3_4_4: E_3_4_4 = 0
E_Zero_Lower_3_5_0: E_3_5_0 = 0
E_Zero_Lower_3_5_1: E_3_5_1 = 0
E_Zero_Lower_3_5_2: E_3_5_2 = 0
E_Zero_Lower_3_5_3: E_3_5_3 = 0
E_Zero_Lower_3_5_4: E_3_5_4 = 0
E_Zero_Lower_3_5_5: E_3_5_5 = 0
E_Zero_Lower_4_0_0: E_4_0_0 = 0
E_Zero_Lower_4_1_0: E_4_1_0 = 0
E_Zero_Lower_4_1_1: E_4_1_1 = 0
E_Zero_Lower_4_2_0: E_4_2_0 = 0
E_Zero_Lower_4_2_1: E_4_2_1 = 0
E_Zero_Lower_4_2_2: E_4_2_2 = 0
E_Zero_Lower_4_3_0: E_4_3_0 = 0
E_Zero_Lower_4_3_1: E_4_3_1 = 0
E_Zero_Lower_4_3_2: E_4_3_2 = 0
E_Zero_Lower_4_3_3: E_4_3_3 = 0
E_Zero_Lower_4_4_0: E_4_4_0 = 0
E_Zero_Lower_4_4_1: E_4_4_1 = 0
E_Zero_Lower_4_4_2: E_4_4_2 = 0
E_Zero_Lower_4_4_3: E_4_4_3 = 0
E_Zero_Lower_4_4_4: E_4_4_4 = 0
E_Zero_Lower_4_5_0: E_4_5_0 = 0
E_Zero_Lower_4_5_1: E_4_5_1 = 0
E_Zero_Lower_4_5_2: E_4_5_2 = 0
E_Zero_Lower_4_5_3: E_4_5_3 = 0
E_Zero_Lower_4_5_4: E_4_5_4 = 0
E_Zero_Lower_4_5_5: E_4_5_5 = 0
Edge_Trans_LB_0_0_0_1: E_0_0_1 - L_0_0_0 + L_0_0_1 <= 1
Edge_Trans_LB_0_0_0_2: E_0_0_2 - L_0_0_0 + L_0_0_2 <= 1
Edge_Trans_LB_0_0_0_3: E_0_0_3 - L_0_0_0 + L_0_0_3 <= 1
Edge_Trans_LB_0_0_0_4: E_0_0_4 - L_0_0_0 + L_0_0_4 <= 1
Edge_Trans_LB_0_0_0_5: E_0_0_5 - L_0_0_0 + L_0_0_5 <= 1
Edge_Trans_LB_0_0_1_2: E_0_1_2 - L_0_0_1 + L_0_0_2 <= 1
Edge_Trans_LB_0_0_1_3: E_0_1_3 - L_0_0_1 + L_0_0_3 <= 1
Edge_Trans_LB_0_0_1_4: E_0_1_4 - L_0_0_1 + L_0_0_4 <= 1
Edge_Trans_LB_0_0_1_5: E_0_1_5 - L_0_0_1 + L_0_0_5 <= 1
Edge_Trans_LB_0_0_2_3: E_0_2_3 - L_0_0_2 + L_0_0_3 <= 1
Edge_Trans_LB_0_0_2_4: E_0_2_4 - L_0_0_2 + L_0_0_4 <= 1
Edge_Trans_LB_0_0_2_5: E_0_2_5 - L_0_0_2 + L_0_0_5 <= 1
Edge_Trans_LB_0_0_3_4: E_0_3_4 - L_0_0_3 + L_0_0_4 <= 1
Edge_Trans_LB_0_0_3_5: E_0_3_5 - L_0_0_3 + L_0_0_5 <= 1
Edge_Trans_LB_0_0_4_5: E_0_4_5 - L_0_0_4 + L_0_0_5 <= 1
Edge_Trans_LB_0_1_0_1: E_0_0_1 - L_0_1_0 + L_0_1_1 <= 1
Edge_Trans_LB_0_1_0_2: E_0_0_2 - L_0_1_0 + L_0_1_2 <= 1
Edge_Trans_LB_0_1_0_3: E_0_0_3 - L_0_1_0 + L_0_1_3 <= 1
Edge_Trans_LB_0_1_0_4: E_0_0_4 - L_0_1_0 + L_0_1_4 <= 1
Edge_Trans_LB_0_1_0_5: E_0_0_5 - L_0_1_0 + L_0_1_5 <= 1
Edge_Trans_LB_0_1_1_2: E_0_1_2 - L_0_1_1 + L_0_1_2 <= 1
Edge_Trans_LB_0_1_1_3: E_0_1_3 - L_0_1_1 + L_0_1_3 <= 1
Edge_Trans_LB_0_1_1_4: E_0_1_4 - L_0_1_1 + L_0_1_4 <= 1
Edge_Trans_LB_0_1_1_5: E_0_1_5 - L_0_1_1 + L_0_1_5 <= 1
Edge_Trans_LB_0_1_2_3: E_0_2_3 - L_0_1_2 + L_0_1_3 <= 1
Edge_Trans_LB_0_1_2_4: E_0_2_4 - L_0_1_2 + L_0_1_4 <= 1
Edge_Trans_LB_0_1_2_5: E_0_2_5 - L_0_1_2 + L_0_1_5 <= 1
Edge_Trans_LB_0_1_3_4: E_0_3_4 - L_0_1_3 + L_0_1_4 <= 1
Edge_Trans_LB_0_1_3_5: E_0_3_5 - L_0_1_3 + L_0_1_5 <= 1
Edge_Trans_LB_0_1_4_5: E_0_4_5 - L_0_1_4 + L_0_1_5 <= 1
Edge_Trans_LB_0_2_0_1: E_0_0_1 - L_0_2_0 + L_0_2_1 <= 1
Edge_Trans_LB_0_2_0_2: E_0_0_2 - L_0_2_0 + L_0_2_2 <= 1
Edge_Trans_LB_0_2_0_3: E_0_0_3 - L_0_2_0 + L_0_2_3 <= 1
Edge_Trans_LB_0_2_0_4: E_0_0_4 - L_0_2_0 + L_0_2_4 <= 1
Edge_Trans_LB_0_2_0_5: E_0_0_5 - L_0_2_0 + L_0_2_5 <= 1
Edge_Trans_LB_0_2_1_2: E_0_1_2 - L_0_2_1 + L_0_2_2 <= 1
Edge_Trans_LB_0_2_1_3: E_0_1_3 - L_0_2_1 + L_0_2_3 <= 1
Edge_Trans_LB_0_2_1_4: E_0_1_4 - L_0_2_1 + L_0_2_4 <= 1
Edge_Trans_LB_0_2_1_5: E_0_1_5 - L_0_2_1 + L_0_2_5 <= 1
Edge_Trans_LB_0_2_2_3: E_0_2_3 - L_0_2_2 + L_0_2_3 <= 1
Edge_Trans_LB_0_2_2_4: E_0_2_4 - L_0_2_2 + L_0_2_4 <= 1
Edge_Trans_LB_0_2_2_5: E_0_2_5 - L_0_2_2 + L_0_2_5 <= 1
Edge_Trans_LB_0_2_3_4: E_0_3_4 - L_0_2_3 + L_0_2_4 <= 1
Edge_Trans_LB_0_2_3_5: E_0_3_5 - L_0_2_3 + L_0_2_5 <= 1
Edge_Trans_LB_0_2_4_5: E_0_4_5 - L_0_2_4 + L_0_2_5 <= 1
Edge_Trans_LB_0_3_0_1: E_0_0_1 - L_0_3_0 + L_0_3_1 <= 1
Edge_Trans_LB_0_3_0_2: E_0_0_2 - L_0_3_0 + L_0_3_2 <= 1
Edge_Trans_LB_0_3_0_3: E_0_0_3 - L_0_3_0 + L_0_3_3 <= 1
Edge_Trans_LB_0_3_0_4: E_0_0_4 - L_0_3_0 + L_0_3_4 <= 1
Edge_Trans_LB_0_3_0_5: E_0_0_5 - L_0_3_0 + L_0_3_5 <= 1
Edge_Trans_LB_0_3_1_2: E_0_1_2 - L_0_3_1 + L_0_3_2 <= 1
Edge_Trans_LB_0_3_1_3: E_0_1_3 - L_0_3_1 + L_0_3_3 <= 1
Edge_Trans_LB_0_3_1_4: E_0_1_4 - L_0_3_1 + L_0_3_4 <= 1
Edge_Trans_LB_0_3_1_5: E_0_1_5 - L_0_3_1 + L_0_3_5 <= 1
Edge_Trans_LB_0_3_2_3: E_0_2_3 - L_0_3_2 + L_0_3_3 <= 1
Edge_Trans_LB_0_3_2_4: E_0_2_4 - L_0_3_2 + L_0_3_4 <= 1
Edge_Trans_LB_0_3_2_5: E_0_2_5 - L_0_3_2 + L_0_3_5 <= 1
Edge_Trans_LB_0_3_3_4: E_0_3_4 - L_0_3_3 + L_0_3_4 <= 1
Edge_Trans_LB_0_3_3_5: E_0_3_5 - L_0_3_3 + L_0_3_5 <= 1
Edge_Trans_LB_0_3_4_5: E_0_4_5 - L_0_3_4 + L_0_3_5 <= 1
Edge_Trans_LB_0_4_0_1: E_0_0_1 - L_0_4_0 + L_0_4_1 <= 1
Edge_Trans_LB_0_4_0_2: E_0_0_2 - L_0_4_0 + L_0_4_2 <= 1
Edge_Trans_LB_0_4_0_3: E_0_0_3 - L_0_4_0 + L_0_4_3 <= 1
Edge_Trans_LB_0_4_0_4: E_0_0_4 - L_0_4_0 + L_0_4_4 <= 1
Edge_Trans_LB_0_4_0_5: E_0_0_5 - L_0_4_0 + L_0_4_5 <= 1
Edge_Trans_LB_0_4_1_2: E_0_1_2 - L_0_4_1 + L_0_4_2 <= 1
Edge_Trans_LB_0_4_1_3: E_0_1_3 - L_0_4_1 + L_0_4_3 <= 1
Edge_Trans_LB_0_4_1_4: E_0_1_4 - L_0_4_1 + L_0_4_4 <= 1
Edge_Trans_LB_0_4_1_5: E_0_1_5 - L_0_4_1 + L_0_4_5 <= 1
Edge_Trans_LB_0_4_2_3: E_0_2_3 - L_0_4_2 + L_0_4_3 <= 1
Edge_Trans_LB_0_4_2_4: E_0_2_4 - L_0_4_2 + L_0_4_4 <= 1
Edge_Trans_LB_0_4_2_5: E_0_2_5 - L_0_4_2 + L_0_4_5 <= 1
Edge_Trans_LB_0_4_3_4: E_0_3_4 - L_0_4_3 + L_0_4_4 <= 1
Edge_Trans_LB_0_4_3_5: E_0_3_5 - L_0_4_3 + L_0_4_5 <= 1
Edge_Trans_LB_0_4_4_5: E_0_4_5 - L_0_4_4 + L_0_4_5 <= 1
Edge_Trans_LB_0_5_0_1: E_0_0_1 - L_0_5_0 + L_0_5_1 <= 1
Edge_Trans_LB_0_5_0_2: E_0_0_2 - L_0_5_0 + L_0_5_2 <= 1
Edge_Trans_LB_0_5_0_3: E_0_0_3 - L_0_5_0 + L_0_5_3 <= 1
Edge_Trans_LB_0_5_0_4: E_0_0_4 - L_0_5_0 + L_0_5_4 <= 1
Edge_Trans_LB_0_5_0_5: E_0_0_5 - L_0_5_0 + L_0_5_5 <= 1
Edge_Trans_LB_0_5_1_2: E_0_1_2 - L_0_5_1 + L_0_5_2 <= 1
Edge_Trans_LB_0_5_1_3: E_0_1_3 - L_0_5_1 + L_0_5_3 <= 1
Edge_Trans_LB_0_5_1_4: E_0_1_4 - L_0_5_1 + L_0_5_4 <= 1
Edge_Trans_LB_0_5_1_5: E_0_1_5 - L_0_5_1 + L_0_5_5 <= 1
Edge_Trans_LB_0_5_2_3: E_0_2_3 - L_0_5_2 + L_0_5_3 <= 1
Edge_Trans_LB_0_5_2_4: E_0_2_4 - L_0_5_2 + L_0_5_4 <= 1
Edge_Trans_LB_0_5_2_5: E_0_2_5 - L_0_5_2 + L_0_5_5 <= 1
Edge_Trans_LB_0_5_3_4: E_0_3_4 - L_0_5_3 + L_0_5_4 <= 1
Edge_Trans_LB_0_5_3_5: E_0_3_5 - L_0_5_3 + L_0_5_5 <= 1
Edge_Trans_LB_0_5_4_5: E_0_4_5 - L_0_5_4 + L_0_5_5 <= 1
Edge_Trans_LB_1_0_0_1: E_1_0_1 - L_1_0_0 + L_1_0_1 <= 1
Edge_Trans_LB_1_0_0_2: E_1_0_2 - L_1_0_0 + L_1_0_2 <= 1
Edge_Trans_LB_1_0_0_3: E_1_0_3 - L_1_0_0 + L_1_0_3 <= 1
Edge_Trans_LB_1_0_0_4: E_1_0_4 - L_1_0_0 + L_1_0_4 <= 1
Edge_Trans_LB_1_0_0_5: E_1_0_5 - L_1_0_0 + L_1_0_5 <= 1
Edge_Trans_LB_1_0_1_2: E_1_1_2 - L_1_0_1 + L_1_0_2 <= 1
Edge_Trans_LB_1_0_1_3: E_1_1_3 - L_1_0_1 + L_1_0_3 <= 1
Edge_Trans_LB_1_0_1_4: E_1_1_4 - L_1_0_1 + L_1_0_4 <= 1
Edge_Trans_LB_1_0_1_5: E_1_1_5 - L_1_0_1 + L_1_0_5 <= 1
Edge_Trans_LB_1_0_2_3: E_1_2_3 - L_1_0_2 + L_1_0_3 <= 1
Edge_Trans_LB_1_0_2_4: E_1_2_4 - L_1_0_2 + L_1_0_4 <= 1
Edge_Trans_LB_1_0_2_5: E_1_2_5 - L_1_0_2 + L_1_0_5 <= 1
Edge_Trans_LB_1_0_3_4: E_1_3_4 - L_1_0_3 + L_1_0_4 <= 1
Edge_Trans_LB_1_0_3_5: E_1_3_5 - L_1_0_3 + L_1_0_5 <= 1
Edge_Trans_LB_1_0_4_5: E_1_4_5 - L_1_0_4 + L_1_0_5 <= 1
Edge_Trans_LB_1_1_0_1: E_1_0_1 - L_1_1_0 + L_1_1_1 <= 1
Edge_Trans_LB_1_1_0_2: E_1_0_2 - L_1_1_0 + L_1_1_2 <= 1
Edge_Trans_LB_1_1_0_3: E_1_0_3 - L_1_1_0 + L_1_1_3 <= 1
Edge_Trans_LB_1_1_0_4: E_1_0_4 - L_1_1_0 + L_1_1_4 <= 1
Edge_Trans_LB_1_1_0_5: E_1_0_5 - L_1_1_0 + L_1_1_5 <= 1
Edge_Trans_LB_1_1_1_2: E_1_1_2 - L_1_1_1 + L_1_1_2 <= 1
Edge_Trans_LB_1_1_1_3: E_1_1_3 - L_1_1_1 + L_1_1_3 <= 1
Edge_Trans_LB_1_1_1_4: E_1_1_4 - L_1_1_1 + L_1_1_4 <= 1
Edge_Trans_LB_1_1_1_5: E_1_1_5 - L_1_1_1 + L_1_1_5 <= 1
Edge_Trans_LB_1_1_2_3: E_1_2_3 - L_1_1_2 + L_1_1_3 <= 1
Edge_Trans_LB_1_1_2_4: E_1_2_4 - L_1_1_2 + L_1_1_4 <= 1
Edge_Trans_LB_1_1_2_5: E_1_2_5 - L_1_1_2 + L_1_1_5 <= 1
Edge_Trans_LB_1_1_3_4: E_1_3_4 - L_1_1_3 + L_1_1_4 <= 1
Edge_Trans_LB_1_1_3_5: E_1_3_5 - L_1_1_3 + L_1_1_5 <= 1
Edge_Trans_LB_1_1_4_5: E_1_4_5 - L_1_1_4 + L_1_1_5 <= 1
Edge_Trans_LB_1_2_0_1: E_1_0_1 - L_1_2_0 + L_1_2_1 <= 1
Edge_Trans_LB_1_2_0_2: E_1_0_2 - L_1_2_0 + L_1_2_2 <= 1
Edge_Trans_LB_1_2_0_3: E_1_0_3 - L_1_2_0 + L_1_2_3 <= 1
Edge_Trans_LB_1_2_0_4: E_1_0_4 - L_1_2_0 + L_1_2_4 <= 1
Edge_Trans_LB_1_2_0_5: E_1_0_5 - L_1_2_0 + L_1_2_5 <= 1
Edge_Trans_LB_1_2_1_2: E_1_1_2 - L_1_2_1 + L_1_2_2 <= 1
Edge_Trans_LB_1_2_1_3: E_1_1_3 - L_1_2_1 + L_1_2_3 <= 1
Edge_Trans_LB_1_2_1_4: E_1_1_4 - L_1_2_1 + L_1_2_4 <= 1
Edge_Trans_LB_1_2_1_5: E_1_1_5 - L_1_2_1 + L_1_2_5 <= 1
Edge_Trans_LB_1_2_2_3: E_1_2_3 - L_1_2_2 + L_1_2_3 <= 1
Edge_Trans_LB_1_2_2_4: E_1_2_4 - L_1_2_2 + L_1_2_4 <= 1
Edge_Trans_LB_1_2_2_5: E_1_2_5 - L_1_2_2 + L_1_2_5 <= 1
Edge_Trans_LB_1_2_3_4: E_1_3_4 - L_1_2_3 + L_1_2_4 <= 1
Edge_Trans_LB_1_2_3_5: E_1_3_5 - L_1_2_3 + L_1_2_5 <= 1
Edge_Trans_LB_1_2_4_5: E_1_4_5 - L_1_2_4 + L_1_2_5 <= 1
Edge_Trans_LB_1_3_0_1: E_1_0_1 - L_1_3_0 + L_1_3_1 <= 1
Edge_Trans_LB_1_3_0_2: E_1_0_2 - L_1_3_0 + L_1_3_2 <= 1
Edge_Trans_LB_1_3_0_3: E_1_0_3 - L_1_3_0 + L_1_3_3 <= 1
Edge_Trans_LB_1_3_0_4: E_1_0_4 - L_1_3_0 + L_1_3_4 <= 1
Edge_Trans_LB_1_3_0_5: E_1_0_5 - L_1_3_0 + L_1_3_5 <= 1
Edge_Trans_LB_1_3_1_2: E_1_1_2 - L_1_3_1 + L_1_3_2 <= 1
Edge_Trans_LB_1_3_1_3: E_1_1_3 - L_1_3_1 + L_1_3_3 <= 1
Edge_Trans_LB_1_3_1_4: E_1_1_4 - L_1_3_1 + L_1_3_4 <= 1
Edge_Trans_LB_1_3_1_5: E_1_1_5 - L_1_3_1 + L_1_3_5 <= 1
Edge_Trans_LB_1_3_2_3: E_1_2_3 - L_1_3_2 + L_1_3_3 <= 1
Edge_Trans_LB_1_3_2_4: E_1_2_4 - L_1_3_2 + L_1_3_4 <= 1
Edge_Trans_LB_1_3_2_5: E_1_2_5 - L_1_3_2 + L_1_3_5 <= 1
Edge_Trans_LB_1_3_3_4: E_1_3_4 - L_1_3_3 + L_1_3_4 <= 1
Edge_Trans_LB_1_3_3_5: E_1_3_5 - L_1_3_3 + L_1_3_5 <= 1
Edge_Trans_LB_1_3_4_5: E_1_4_5 - L_1_3_4 + L_1_3_5 <= 1
Edge_Trans_LB_1_4_0_1: E_1_0_1 - L_1_4_0 + L_1_4_1 <= 1
Edge_Trans_LB_1_4_0_2: E_1_0_2 - L_1_4_0 + L_1_4_2 <= 1
Edge_Trans_LB_1_4_0_3: E_1_0_3 - L_1_4_0 + L_1_4_3 <= 1
Edge_Trans_LB_1_4_0_4: E_1_0_4 - L_1_4_0 + L_1_4_4 <= 1
Edge_Trans_LB_1_4_0_5: E_1_0_5 - L_1_4_0 + L_1_4_5 <= 1
Edge_Trans_LB_1_4_1_2: E_1_1_2 - L_1_4_1 + L_1_4_2 <= 1
Edge_Trans_LB_1_4_1_3: E_1_1_3 - L_1_4_1 + L_1_4_3 <= 1
Edge_Trans_LB_1_4_1_4: E_1_1_4 - L_1_4_1 + L_1_4_4 <= 1
Edge_Trans_LB_1_4_1_5: E_1_1_5 - L_1_4_1 + L_1_4_5 <= 1
Edge_Trans_LB_1_4_2_3: E_1_2_3 - L_1_4_2 + L_1_4_3 <= 1
Edge_Trans_LB_1_4_2_4: E_1_2_4 - L_1_4_2 + L_1_4_4 <= 1
Edge_Trans_LB_1_4_2_5: E_1_2_5 - L_1_4_2 + L_1_4_5 <= 1
Edge_Trans_LB_1_4_3_4: E_1_3_4 - L_1_4_3 + L_1_4_4 <= 1
Edge_Trans_LB_1_4_3_5: E_1_3_5 - L_1_4_3 + L_1_4_5 <= 1
Edge_Trans_LB_1_4_4_5: E_1_4_5 - L_1_4_4 + L_1_4_5 <= 1
Edge_Trans_LB_1_5_0_1: E_1_0_1 - L_1_5_0 + L_1_5_1 <= 1
Edge_Trans_LB_1_5_0_2: E_1_0_2 - L_1_5_0 + L_1_5_2 <= 1
Edge_Trans_LB_1_5_0_3: E_1_0_3 - L_1_5_0 + L_1_5_3 <= 1
Edge_Trans_LB_1_5_0_4: E_1_0_4 - L_1_5_0 + L_1_5_4 <= 1
Edge_Trans_LB_1_5_0_5: E_1_0_5 - L_1_5_0 + L_1_5_5 <= 1
Edge_Trans_LB_1_5_1_2: E_1_1_2 - L_1_5_1 + L_1_5_2 <= 1
Edge_Trans_LB_1_5_1_3: E_1_1_3 - L_1_5_1 + L_1_5_3 <= 1
Edge_Trans_LB_1_5_1_4: E_1_1_4 - L_1_5_1 + L_1_5_4 <= 1
Edge_Trans_LB_1_5_1_5: E_1_1_5 - L_1_5_1 + L_1_5_5 <= 1
Edge_Trans_LB_1_5_2_3: E_1_2_3 - L_1_5_2 + L_1_5_3 <= 1
Edge_Trans_LB_1_5_2_4: E_1_2_4 - L_1_5_2 + L_1_5_4 <= 1
Edge_Trans_LB_1_5_2_5: E_1_2_5 - L_1_5_2 + L_1_5_5 <= 1
Edge_Trans_LB_1_5_3_4: E_1_3_4 - L_1_5_3 + L_1_5_4 <= 1
Edge_Trans_LB_1_5_3_5: E_1_3_5 - L_1_5_3 + L_1_5_5 <= 1
Edge_Trans_LB_1_5_4_5: E_1_4_5 - L_1_5_4 + L_1_5_5 <= 1
Edge_Trans_LB_2_0_0_1: E_2_0_1 - L_2_0_0 + L_2_0_1 <= 1
Edge_Trans_LB_2_0_0_2: E_2_0_2 - L_2_0_0 + L_2_0_2 <= 1
Edge_Trans_LB_2_0_0_3: E_2_0_3 - L_2_0_0 + L_2_0_3 <= 1
Edge_Trans_LB_2_0_0_4: E_2_0_4 - L_2_0_0 + L_2_0_4 <= 1
Edge_Trans_LB_2_0_0_5: E_2_0_5 - L_2_0_0 + L_2_0_5 <= 1
Edge_Trans_LB_2_0_1_2: E_2_1_2 - L_2_0_1 + L_2_0_2 <= 1
Edge_Trans_LB_2_0_1_3: E_2_1_3 - L_2_0_1 + L_2_0_3 <= 1
Edge_Trans_LB_2_0_1_4: E_2_1_4 - L_2_0_1 + L_2_0_4 <= 1
Edge_Trans_LB_2_0_1_5: E_2_1_5 - L_2_0_1 + L_2_0_5 <= 1
Edge_Trans_LB_2_0_2_3: E_2_2_3 - L_2_0_2 + L_2_0_3 <= 1
Edge_Trans_LB_2_0_2_4: E_2_2_4 - L_2_0_2 + L_2_0_4 <= 1
Edge_Trans_LB_2_0_2_5: E_2_2_5 - L_2_0_2 + L_2_0_5 <= 1
Edge_Trans_LB_2_0_3_4: E_2_3_4 - L_2_0_3 + L_2_0_4 <= 1
Edge_Trans_LB_2_0_3_5: E_2_3_5 - L_2_0_3 + L_2_0_5 <= 1
Edge_Trans_LB_2_0_4_5: E_2_4_5 - L_2_0_4 + L_2_0_5 <= 1
Edge_Trans_LB_2_1_0_1: E_2_0_1 - L_2_1_0 + L_2_1_1 <= 1
Edge_Trans_LB_2_1_0_2: E_2_0_2 - L_2_1_0 + L_2_1_2 <= 1
Edge_Trans_LB_2_1_0_3: E_2_0_3 - L_2_1_0 + L_2_1_3 <= 1
Edge_Trans_LB_2_1_0_4: E_2_0_4 - L_2_1_0 + L_2_1_4 <= 1
Edge_Trans_LB_2_1_0_5: E_2_0_5 - L_2_1_0 + L_2_1_5 <= 1
Edge_Trans_LB_2_1_1_2: E_2_1_2 - L_2_1_1 + L_2_1_2 <= 1
Edge_Trans_LB_2_1_1_3: E_2_1_3 - L_2_1_1 + L_2_1_3 <= 1
Edge_Trans_LB_2_1_1_4: E_2_1_4 - L_2_1_1 + L_2_1_4 <= 1
Edge_Trans_LB_2_1_1_5: E_2_1_5 - L_2_1_1 + L_2_1_5 <= 1
Edge_Trans_LB_2_1_2_3: E_2_2_3 - L_2_1_2 + L_2_1_3 <= 1
Edge_Trans_LB_2_1_2_4: E_2_2_4 - L_2_1_2 + L_2_1_4 <= 1
Edge_Trans_LB_2_1_2_5: E_2_2_5 - L_2_1_2 + L_2_1_5 <= 1
Edge_Trans_LB_2_1_3_4: E_2_3_4 - L_2_1_3 + L_2_1_4 <= 1
Edge_Trans_LB_2_1_3_5: E_2_3_5 - L_2_1_3 + L_2_1_5 <= 1
Edge_Trans_LB_2_1_4_5: E_2_4_5 - L_2_1_4 + L_2_1_5 <= 1
Edge_Trans_LB_2_2_0_1: E_2_0_1 - L_2_2_0 + L_2_2_1 <= 1
Edge_Trans_LB_2_2_0_2: E_2_0_2 - L_2_2_0 + L_2_2_2 <= 1
Edge_Trans_LB_2_2_0_3: E_2_0_3 - L_2_2_0 + L_2_2_3 <= 1
Edge_Trans_LB_2_2_0_4: E_2_0_4 - L_2_2_0 + L_2_2_4 <= 1
Edge_Trans_LB_2_2_0_5: E_2_0_5 - L_2_2_0 + L_2_2_5 <= 1
Edge_Trans_LB_2_2_1_2: E_2_1_2 - L_2_2_1 + L_2_2_2 <= 1
Edge_Trans_LB_2_2_1_3: E_2_1_3 - L_2_2_1 + L_2_2_3 <= 1
Edge_Trans_LB_2_2_1_4: E_2_1_4 - L_2_2_1 + L_2_2_4 <= 1
Edge_Trans_LB_2_2_1_5: E_2_1_5 - L_2_2_1 + L_2_2_5 <= 1
Edge_Trans_LB_2_2_2_3: E_2_2_3 - L_2_2_2 + L_2_2_3 <= 1
Edge_Trans_LB_2_2_2_4: E_2_2_4 - L_2_2_2 + L_2_2_4 <= 1
Edge_Trans_LB_2_2_2_5: E_2_2_5 - L_2_2_2 + L_2_2_5 <= 1
Edge_Trans_LB_2_2_3_4: E_2_3_4 - L_2_2_3 + L_2_2_4 <= 1
Edge_Trans_LB_2_2_3_5: E_2_3_5 - L_2_2_3 + L_2_2_5 <= 1
Edge_Trans_LB_2_2_4_5: E_2_4_5 - L_2_2_4 + L_2_2_5 <= 1
Edge_Trans_LB_2_3_0_1: E_2_0_1 - L_2_3_0 + L_2_3_1 <= 1
Edge_Trans_LB_2_3_0_2: E_2_0_2 - L_2_3_0 + L_2_3_2 <= 1
Edge_Trans_LB_2_3_0_3: E_2_0_3 - L_2_3_0 + L_2_3_3 <= 1
Edge_Trans_LB_2_3_0_4: E_2_0_4 - L_2_3_0 + L_2_3_4 <= 1
Edge_Trans_LB_2_3_0_5: E_2_0_5 - L_2_3_0 + L_2_3_5 <= 1
Edge_Trans_LB_2_3_1_2: E_2_1_2 - L_2_3_1 + L_2_3_2 <= 1
Edge_Trans_LB_2_3_1_3: E_2_1_3 - L_2_3_1 + L_2_3_3 <= 1
Edge_Trans_LB_2_3_1_4: E_2_1_4 - L_2_3_1 + L_2_3_4 <= 1
Edge_Trans_LB_2_3_1_5: E_2_1_5 - L_2_3_1 + L_2_3_5 <= 1
Edge_Trans_LB_2_3_2_3: E_2_2_3 - L_2_3_2 + L_2_3_3 <= 1
Edge_Trans_LB_2_3_2_4: E_2_2_4 - L_2_3_2 + L_2_3_4 <= 1
Edge_Trans_LB_2_3_2_5: E_2_2_5 - L_2_3_2 + L_2_3_5 <= 1
Edge_Trans_LB_2_3_3_4: E_2_3_4 - L_2_3_3 + L_2_3_4 <= 1
Edge_Trans_LB_2_3_3_5: E_2_3_5 - L_2_3_3 + L_2_3_5 <= 1
Edge_Trans_LB_2_3_4_5: E_2_4_5 - L_2_3_4 + L_2_3_5 <= 1
Edge_Trans_LB_2_4_0_1: E_2_0_1 - L_2_4_0 + L_2_4_1 <= 1
Edge_Trans_LB_2_4_0_2: E_2_0_2 - L_2_4_0 + L_2_4_2 <= 1
Edge_Trans_LB_2_4_0_3: E_2_0_3 - L_2_4_0 + L_2_4_3 <= 1
Edge_Trans_LB_2_4_0_4: E_2_0_4 - L_2_4_0 + L_2_4_4 <= 1
Edge_Trans_LB_2_4_0_5: E_2_0_5 - L_2_4_0 + L_2_4_5 <= 1
Edge_Trans_LB_2_4_1_2: E_2_1_2 - L_2_4_1 + L_2_4_2 <= 1
Edge_Trans_LB_2_4_1_3: E_2_1_3 - L_2_4_1 + L_2_4_3 <= 1
Edge_Trans_LB_2_4_1_4: E_2_1_4 - L_2_4_1 + L_2_4_4 <= 1
Edge_Trans_LB_2_4_1_5: E_2_1_5 - L_2_4_1 + L_2_4_5 <= 1
Edge_Trans_LB_2_4_2_3: E_2_2_3 - L_2_4_2 + L_2_4_3 <= 1
Edge_Trans_LB_2_4_2_4: E_2_2_4 - L_2_4_2 + L_2_4_4 <= 1
Edge_Trans_LB_2_4_2_5: E_2_2_5 - L_2_4_2 + L_2_4_5 <= 1
Edge_Trans_LB_2_4_3_4: E_2_3_4 - L_2_4_3 + L_2_4_4 <= 1
Edge_Trans_LB_2_4_3_5: E_2_3_5 - L_2_4_3 + L_2_4_5 <= 1
Edge_Trans_LB_2_4_4_5: E_2_4_5 - L_2_4_4 + L_2_4_5 <= 1
Edge_Trans_LB_2_5_0_1: E_2_0_1 - L_2_5_0 + L_2_5_1 <= 1
Edge_Trans_LB_2_5_0_2: E_2_0_2 - L_2_5_0 + L_2_5_2 <= 1
Edge_Trans_LB_2_5_0_3: E_2_0_3 - L_2_5_0 + L_2_5_3 <= 1
Edge_Trans_LB_2_5_0_4: E_2_0_4 - L_2_5_0 + L_2_5_4 <= 1
Edge_Trans_LB_2_5_0_5: E_2_0_5 - L_2_5_0 + L_2_5_5 <= 1
Edge_Trans_LB_2_5_1_2: E_2_1_2 - L_2_5_1 + L_2_5_2 <= 1
Edge_Trans_LB_2_5_1_3: E_2_1_3 - L_2_5_1 + L_2_5_3 <= 1
Edge_Trans_LB_2_5_1_4: E_2_1_4 - L_2_5_1 + L_2_5_4 <= 1
Edge_Trans_LB_2_5_1_5: E_2_1_5 - L_2_5_1 + L_2_5_5 <= 1
Edge_Trans_LB_2_5_2_3: E_2_2_3 - L_2_5_2 + L_2_5_3 <= 1
Edge_Trans_LB_2_5_2_4: E_2_2_4 - L_2_5_2 + L_2_5_4 <= 1
Edge_Trans_LB_2_5_2_5: E_2_2_5 - L_2_5_2 + L_2_5_5 <= 1
Edge_Trans_LB_2_5_3_4: E_2_3_4 - L_2_5_3 + L_2_5_4 <= 1
Edge_Trans_LB_2_5_3_5: E_2_3_5 - L_2_5_3 + L_2_5_5 <= 1
Edge_Trans_LB_2_5_4_5: E_2_4_5 - L_2_5_4 + L_2_5_5 <= 1
Edge_Trans_LB_3_0_0_1: E_3_0_1 - L_3_0_0 + L_3_0_1 <= 1
Edge_Trans_LB_3_0_0_2: E_3_0_2 - L_3_0_0 + L_3_0_2 <= 1
Edge_Trans_LB_3_0_0_3: E_3_0_3 - L_3_0_0 + L_3_0_3 <= 1
Edge_Trans_LB_3_0_0_4: E_3_0_4 - L_3_0_0 + L_3_0_4 <= 1
Edge_Trans_LB_3_0_0_5: E_3_0_5 - L_3_0_0 + L_3_0_5 <= 1
Edge_Trans_LB_3_0_1_2: E_3_1_2 - L_3_0_1 + L_3_0_2 <= 1
Edge_Trans_LB_3_0_1_3: E_3_1_3 - L_3_0_1 + L_3_0_3 <= 1
Edge_Trans_LB_3_0_1_4: E_3_1_4 - L_3_0_1 + L_3_0_4 <= 1
Edge_Trans_LB_3_0_1_5: E_3_1_5 - L_3_0_1 + L_3_0_5 <= 1
Edge_Trans_LB_3_0_2_3: E_3_2_3 - L_3_0_2 + L_3_0_3 <= 1
Edge_Trans_LB_3_0_2_4: E_3_2_4 - L_3_0_2 + L_3_0_4 <= 1
Edge_Trans_LB_3_0_2_5: E_3_2_5 - L_3_0_2 + L_3_0_5 <= 1
Edge_Trans_LB_3_0_3_4: E_3_3_4 - L_3_0_3 + L_3_0_4 <= 1
Edge_Trans_LB_3_0_3_5: E_3_3_5 - L_3_0_3 + L_3_0_5 <= 1
Edge_Trans_LB_3_0_4_5: E_3_4_5 - L_3_0_4 + L_3_0_5 <= 1
Edge_Trans_LB_3_1_0_1: E_3_0_1 - L_3_1_0 + L_3_1_1 <= 1
Edge_Trans_LB_3_1_0_2: E_3_0_2 - L_3_1_0 + L_3_1_2 <= 1
Edge_Trans_LB_3_1_0_3: E_3_0_3 - L_3_1_0 + L_3_1_3 <= 1
Edge_Trans_LB_3_1_0_4: E_3_0_4 - L_3_1_0 + L_3_1_4 <= 1
Edge_Trans_LB_3_1_0_5: E_3_0_5 - L_3_1_0 + L_3_1_5 <= 1
Edge_Trans_LB_3_1_1_2: E_3_1_2 - L_3_1_1 + L_3_1_2 <= 1
Edge_Trans_LB_3_1_1_3: E_3_1_3 - L_3_1_1 + L_3_1_3 <= 1
Edge_Trans_LB_3_1_1_4: E_3_1_4 - L_3_1_1 + L_3_1_4 <= 1
Edge_Trans_LB_3_1_1_5: E_3_1_5 - L_3_1_1 + L_3_1_5 <= 1
Edge_Trans_LB_3_1_2_3: E_3_2_3 - L_3_1_2 + L_3_1_3 <= 1
Edge_Trans_LB_3_1_2_4: E_3_2_4 - L_3_1_2 + L_3_1_4 <= 1
Edge_Trans_LB_3_1_2_5: E_3_2_5 - L_3_1_2 + L_3_1_5 <= 1
Edge_Trans_LB_3_1_3_4: E_3_3_4 - L_3_1_3 + L_3_1_4 <= 1
Edge_Trans_LB_3_1_3_5: E_3_3_5 - L_3_1_3 + L_3_1_5 <= 1
Edge_Trans_LB_3_1_4_5: E_3_4_5 - L_3_1_4 + L_3_1_5 <= 1
Edge_Trans_LB_3_2_0_1: E_3_0_1 - L_3_2_0 + L_3_2_1 <= 1
Edge_Trans_LB_3_2_0_2: E_3_0_2 - L_3_2_0 + L_3_2_2 <= 1
Edge_Trans_LB_3_2_0_3: E_3_0_3 - L_3_2_0 + L_3_2_3 <= 1
Edge_Trans_LB_3_2_0_4: E_3_0_4 - L_3_2_0 + L_3_2_4 <= 1
Edge_Trans_LB_3_2_0_5: E_3_0_5 - L_3_2_0 + L_3_2_5 <= 1
Edge_Trans_LB_3_2_1_2: E_3_1_2 - L_3_2_1 + L_3_2_2 <= 1
Edge_Trans_LB_3_2_1_3: E_3_1_3 - L_3_2_1 + L_3_2_3 <= 1
Edge_Trans_LB_3_2_1_4: E_3_1_4 - L_3_2_1 + L_3_2_4 <= 1
Edge_Trans_LB_3_2_1_5: E_3_1_5 - L_3_2_1 + L_3_2_5 <= 1
Edge_Trans_LB_3_2_2_3: E_3_2_3 - L_3_2_2 + L_3_2_3 <= 1
Edge_Trans_LB_3_2_2_4: E_3_2_4 - L_3_2_2 + L_3_2_4 <= 1
Edge_Trans_LB_3_2_2_5: E_3_2_5 - L_3_2_2 + L_3_2_5 <= 1
Edge_Trans_LB_3_2_3_4: E_3_3_4 - L_3_2_3 + L_3_2_4 <= 1
Edge_Trans_LB_3_2_3_5: E_3_3_5 - L_3_2_3 + L_3_2_5 <= 1
Edge_Trans_LB_3_2_4_5: E_3_4_5 - L_3_2_4 + L_3_2_5 <= 1
Edge_Trans_LB_3_3_0_1: E_3_0_1 - L_3_3_0 + L_3_3_1 <= 1
Edge_Trans_LB_3_3_0_2: E_3_0_2 - L_3_3_0 + L_3_3_2 <= 1
Edge_Trans_LB_3_3_0_3: E_3_0_3 - L_3_3_0 + L_3_3_3 <= 1
Edge_Trans_LB_3_3_0_4: E_3_0_4 - L_3_3_0 + L_3_3_4 <= 1
Edge_Trans_LB_3_3_0_5: E_3_0_5 - L_3_3_0 + L_3_3_5 <= 1
Edge_Trans_LB_3_3_1_2: E_3_1_2 - L_3_3_1 + L_3_3_2 <= 1
Edge_Trans_LB_3_3_1_3: E_3_1_3 - L_3_3_1 + L_3_3_3 <= 1
Edge_Trans_LB_3_3_1_4: E_3_1_4 - L_3_3_1 + L_3_3_4 <= 1
Edge_Trans_LB_3_3_1_5: E_3_1_5 - L_3_3_1 + L_3_3_5 <= 1
Edge_Trans_LB_3_3_2_3: E_3_2_3 - L_3_3_2 + L_3_3_3 <= 1
Edge_Trans_LB_3_3_2_4: E_3_2_4 - L_3_3_2 + L_3_3_4 <= 1
Edge_Trans_LB_3_3_2_5: E_3_2_5 - L_3_3_2 + L_3_3_5 <= 1
Edge_Trans_LB_3_3_3_4: E_3_3_4 - L_3_3_3 + L_3_3_4 <= 1
Edge_Trans_LB_3_3_3_5: E_3_3_5 - L_3_3_3 + L_3_3_5 <= 1
Edge_Trans_LB_3_3_4_5: E_3_4_5 - L_3_3_4 + L_3_3_5 <= 1
Edge_Trans_LB_3_4_0_1: E_3_0_1 - L_3_4_0 + L_3_4_1 <= 1
Edge_Trans_LB_3_4_0_2: E_3_0_2 - L_3_4_0 + L_3_4_2 <= 1
Edge_Trans_LB_3_4_0_3: E_3_0_3 - L_3_4_0 + L_3_4_3 <= 1
Edge_Trans_LB_3_4_0_4: E_3_0_4 - L_3_4_0 + L_3_4_4 <= 1
Edge_Trans_LB_3_4_0_5: E_3_0_5 - L_3_4_0 + L_3_4_5 <= 1
Edge_Trans_LB_3_4_1_2: E_3_1_2 - L_3_4_1 + L_3_4_2 <= 1
Edge_Trans_LB_3_4_1_3: E_3_1_3 - L_3_4_1 + L_3_4_3 <= 1
Edge_Trans_LB_3_4_1_4: E_3_1_4 - L_3_4_1 + L_3_4_4 <= 1
Edge_Trans_LB_3_4_1_5: E_3_1_5 - L_3_4_1 + L_3_4_5 <= 1
Edge_Trans_LB_3_4_2_3: E_3_2_3 - L_3_4_2 + L_3_4_3 <= 1
Edge_Trans_LB_3_4_2_4: E_3_2_4 - L_3_4_2 + L_3_4_4 <= 1
Edge_Trans_LB_3_4_2_5: E_3_2_5 - L_3_4_2 + L_3_4_5 <= 1
Edge_Trans_LB_3_4_3_4: E_3_3_4 - L_3_4_3 + L_3_4_4 <= 1
Edge_Trans_LB_3_4_3_5: E_3_3_5 - L_3_4_3 + L_3_4_5 <= 1
Edge_Trans_LB_3_4_4_5: E_3_4_5 - L_3_4_4 + L_3_4_5 <= 1
Edge_Trans_LB_3_5_0_1: E_3_0_1 - L_3_5_0 + L_3_5_1 <= 1
Edge_Trans_LB_3_5_0_2: E_3_0_2 - L_3_5_0 + L_3_5_2 <= 1
Edge_Trans_LB_3_5_0_3: E_3_0_3 - L_3_5_0 + L_3_5_3 <= 1
Edge_Trans_LB_3_5_0_4: E_3_0_4 - L_3_5_0 + L_3_5_4 <= 1
Edge_Trans_LB_3_5_0_5: E_3_0_5 - L_3_5_0 + L_3_5_5 <= 1
Edge_Trans_LB_3_5_1_2: E_3_1_2 - L_3_5_1 + L_3_5_2 <= 1
Edge_Trans_LB_3_5_1_3: E_3_1_3 - L_3_5_1 + L_3_5_3 <= 1
Edge_Trans_LB_3_5_1_4: E_3_1_4 - L_3_5_1 + L_3_5_4 <= 1
Edge_Trans_LB_3_5_1_5: E_3_1_5 - L_3_5_1 + L_3_5_5 <= 1
Edge_Trans_LB_3_5_2_3: E_3_2_3 - L_3_5_2 + L_3_5_3 <= 1
Edge_Trans_LB_3_5_2_4: E_3_2_4 - L_3_5_2 + L_3_5_4 <= 1
Edge_Trans_LB_3_5_2_5: E_3_2_5 - L_3_5_2 + L_3_5_5 <= 1
Edge_Trans_LB_3_5_3_4: E_3_3_4 - L_3_5_3 + L_3_5_4 <= 1
Edge_Trans_LB_3_5_3_5: E_3_3_5 - L_3_5_3 + L_3_5_5 <= 1
Edge_Trans_LB_3_5_4_5: E_3_4_5 - L_3_5_4 + L_3_5_5 <= 1
Edge_Trans_LB_4_0_0_1: E_4_0_1 - L_4_0_0 + L_4_0_1 <= 1
Edge_Trans_LB_4_0_0_2: E_4_0_2 - L_4_0_0 + L_4_0_2 <= 1
Edge_Trans_LB_4_0_0_3: E_4_0_3 - L_4_0_0 + L_4_0_3 <= 1
Edge_Trans_LB_4_0_0_4: E_4_0_4 - L_4_0_0 + L_4_0_4 <= 1
Edge_Trans_LB_4_0_0_5: E_4_0_5 - L_4_0_0 + L_4_0_5 <= 1
Edge_Trans_LB_4_0_1_2: E_4_1_2 - L_4_0_1 + L_4_0_2 <= 1
Edge_Trans_LB_4_0_1_3: E_4_1_3 - L_4_0_1 + L_4_0_3 <= 1
Edge_Trans_LB_4_0_1_4: E_4_1_4 - L_4_0_1 + L_4_0_4 <= 1
Edge_Trans_LB_4_0_1_5: E_4_1_5 - L_4_0_1 + L_4_0_5 <= 1
Edge_Trans_LB_4_0_2_3: E_4_2_3 - L_4_0_2 + L_4_0_3 <= 1
Edge_Trans_LB_4_0_2_4: E_4_2_4 - L_4_0_2 + L_4_0_4 <= 1
Edge_Trans_LB_4_0_2_5: E_4_2_5 - L_4_0_2 + L_4_0_5 <= 1
Edge_Trans_LB_4_0_3_4: E_4_3_4 - L_4_0_3 + L_4_0_4 <= 1
Edge_Trans_LB_4_0_3_5: E_4_3_5 - L_4_0_3 + L_4_0_5 <= 1
Edge_Trans_LB_4_0_4_5: E_4_4_5 - L_4_0_4 + L_4_0_5 <= 1
Edge_Trans_LB_4_1_0_1: E_4_0_1 - L_4_1_0 + L_4_1_1 <= 1
Edge_Trans_LB_4_1_0_2: E_4_0_2 - L_4_1_0 + L_4_1_2 <= 1
Edge_Trans_LB_4_1_0_3: E_4_0_3 - L_4_1_0 + L_4_1_3 <= 1
Edge_Trans_LB_4_1_0_4: E_4_0_4 - L_4_1_0 + L_4_1_4 <= 1
Edge_Trans_LB_4_1_0_5: E_4_0_5 - L_4_1_0 + L_4_1_5 <= 1
Edge_Trans_LB_4_1_1_2: E_4_1_2 - L_4_1_1 + L_4_1_2 <= 1
Edge_Trans_LB_4_1_1_3: E_4_1_3 - L_4_1_1 + L_4_1_3 <= 1
Edge_Trans_LB_4_1_1_4: E_4_1_4 - L_4_1_1 + L_4_1_4 <= 1
Edge_Trans_LB_4_1_1_5: E_4_1_5 - L_4_1_1 + L_4_1_5 <= 1
Edge_Trans_LB_4_1_2_3: E_4_2_3 - L_4_1_2 + L_4_1_3 <= 1
Edge_Trans_LB_4_1_2_4: E_4_2_4 - L_4_1_2 + L_4_1_4 <= 1
Edge_Trans_LB_4_1_2_5: E_4_2_5 - L_4_1_2 + L_4_1_5 <= 1
Edge_Trans_LB_4_1_3_4: E_4_3_4 - L_4_1_3 + L_4_1_4 <= 1
Edge_Trans_LB_4_1_3_5: E_4_3_5 - L_4_1_3 + L_4_1_5 <= 1
Edge_Trans_LB_4_1_4_5: E_4_4_5 - L_4_1_4 + L_4_1_5 <= 1
Edge_Trans_LB_4_2_0_1: E_4_0_1 - L_4_2_0 + L_4_2_1 <= 1
Edge_Trans_LB_4_2_0_2: E_4_0_2 - L_4_2_0 + L_4_2_2 <= 1
Edge_Trans_LB_4_2_0_3: E_4_0_3 - L_4_2_0 + L_4_2_3 <= 1
Edge_Trans_LB_4_2_0_4: E_4_0_4 - L_4_2_0 + L_4_2_4 <= 1
Edge_Trans_LB_4_2_0_5: E_4_0_5 - L_4_2_0 + L_4_2_5 <= 1
Edge_Trans_LB_4_2_1_2: E_4_1_2 - L_4_2_1 + L_4_2_2 <= 1
Edge_Trans_LB_4_2_1_3: E_4_1_3 - L_4_2_1 + L_4_2_3 <= 1
Edge_Trans_LB_4_2_1_4: E_4_1_4 - L_4_2_1 + L_4_2_4 <= 1
Edge_Trans_LB_4_2_1_5: E_4_1_5 - L_4_2_1 + L_4_2_5 <= 1
Edge_Trans_LB_4_2_2_3: E_4_2_3 - L_4_2_2 + L_4_2_3 <= 1
Edge_Trans_LB_4_2_2_4: E_4_2_4 - L_4_2_2 + L_4_2_4 <= 1
Edge_Trans_LB_4_2_2_5: E_4_2_5 - L_4_2_2 + L_4_2_5 <= 1
Edge_Trans_LB_4_2_3_4: E_4_3_4 - L_4_2_3 + L_4_2_4 <= 1
Edge_Trans_LB_4_2_3_5: E_4_3_5 - L_4_2_3 + L_4_2_5 <= 1
Edge_Trans_LB_4_2_4_5: E_4_4_5 - L_4_2_4 + L_4_2_5 <= 1
Edge_Trans_LB_4_3_0_1: E_4_0_1 - L_4_3_0 + L_4_3_1 <= 1
Edge_Trans_LB_4_3_0_2: E_4_0_2 - L_4_3_0 + L_4_3_2 <= 1
Edge_Trans_LB_4_3_0_3: E_4_0_3 - L_4_3_0 + L_4_3_3 <= 1
Edge_Trans_LB_4_3_0_4: E_4_0_4 - L_4_3_0 + L_4_3_4 <= 1
Edge_Trans_LB_4_3_0_5: E_4_0_5 - L_4_3_0 + L_4_3_5 <= 1
Edge_Trans_LB_4_3_1_2: E_4_1_2 - L_4_3_1 + L_4_3_2 <= 1
Edge_Trans_LB_4_3_1_3: E_4_1_3 - L_4_3_1 + L_4_3_3 <= 1
Edge_Trans_LB_4_3_1_4: E_4_1_4 - L_4_3_1 + L_4_3_4 <= 1
Edge_Trans_LB_4_3_1_5: E_4_1_5 - L_4_3_1 + L_4_3_5 <= 1
Edge_Trans_LB_4_3_2_3: E_4_2_3 - L_4_3_2 + L_4_3_3 <= 1
Edge_Trans_LB_4_3_2_4: E_4_2_4 - L_4_3_2 + L_4_3_4 <= 1
Edge_Trans_LB_4_3_2_5: E_4_2_5 - L_4_3_2 + L_4_3_5 <= 1
Edge_Trans_LB_4_3_3_4: E_4_3_4 - L_4_3_3 + L_4_3_4 <= 1
Edge_Trans_LB_4_3_3_5: E_4_3_5 - L_4_3_3 + L_4_3_5 <= 1
Edge_Trans_LB_4_3_4_5: E_4_4_5 - L_4_3_4 + L_4_3_5 <= 1
Edge_Trans_LB_4_4_0_1: E_4_0_1 - L_4_4_0 + L_4_4_1 <= 1
Edge_Trans_LB_4_4_0_2: E_4_0_2 - L_4_4_0 + L_4_4_2 <= 1
Edge_Trans_LB_4_4_0_3: E_4_0_3 - L_4_4_0 + L_4_4_3 <= 1
Edge_Trans_LB_4_4_0_4: E_4_0_4 - L_4_4_0 + L_4_4_4 <= 1
Edge_Trans_LB_4_4_0_5: E_4_0_5 - L_4_4_0 + L_4_4_5 <= 1
Edge_Trans_LB_4_4_1_2: E_4_1_2 - L_4_4_1 + L_4_4_2 <= 1
Edge_Trans_LB_4_4_1_3: E_4_1_3 - L_4_4_1 + L_4_4_3 <= 1
Edge_Trans_LB_4_4_1_4: E_4_1_4 - L_4_4_1 + L_4_4_4 <= 1
Edge_Trans_LB_4_4_1_5: E_4_1_5 - L_4_4_1 + L_4_4_5 <= 1
Edge_Trans_LB_4_4_2_3: E_4_2_3 - L_4_4_2 + L_4_4_3 <= 1
Edge_Trans_LB_4_4_2_4: E_4_2_4 - L_4_4_2 + L_4_4_4 <= 1
Edge_Trans_LB_4_4_2_5: E_4_2_5 - L_4_4_2 + L_4_4_5 <= 1
Edge_Trans_LB_4_4_3_4: E_4_3_4 - L_4_4_3 + L_4_4_4 <= 1
Edge_Trans_LB_4_4_3_5: E_4_3_5 - L_4_4_3 + L_4_4_5 <= 1
Edge_Trans_LB_4_4_4_5: E_4_4_5 - L_4_4_4 + L_4_4_5 <= 1
Edge_Trans_LB_4_5_0_1: E_4_0_1 - L_4_5_0 + L_4_5_1 <= 1
Edge_Trans_LB_4_5_0_2: E_4_0_2 - L_4_5_0 + L_4_5_2 <= 1
Edge_Trans_LB_4_5_0_3: E_4_0_3 - L_4_5_0 + L_4_5_3 <= 1
Edge_Trans_LB_4_5_0_4: E_4_0_4 - L_4_5_0 + L_4_5_4 <= 1
Edge_Trans_LB_4_5_0_5: E_4_0_5 - L_4_5_0 + L_4_5_5 <= 1
Edge_Trans_LB_4_5_1_2: E_4_1_2 - L_4_5_1 + L_4_5_2 <= 1
Edge_Trans_LB_4_5_1_3: E_4_1_3 - L_4_5_1 + L_4_5_3 <= 1
Edge_Trans_LB_4_5_1_4: E_4_1_4 - L_4_5_1 + L_4_5_4 <= 1
Edge_Trans_LB_4_5_1_5: E_4_1_5 - L_4_5_1 + L_4_5_5 <= 1
Edge_Trans_LB_4_5_2_3: E_4_2_3 - L_4_5_2 + L_4_5_3 <= 1
Edge_Trans_LB_4_5_2_4: E_4_2_4 - L_4_5_2 + L_4_5_4 <= 1
Edge_Trans_LB_4_5_2_5: E_4_2_5 - L_4_5_2 + L_4_5_5 <= 1
Edge_Trans_LB_4_5_3_4: E_4_3_4 - L_4_5_3 + L_4_5_4 <= 1
Edge_Trans_LB_4_5_3_5: E_4_3_5 - L_4_5_3 + L_4_5_5 <= 1
Edge_Trans_LB_4_5_4_5: E_4_4_5 - L_4_5_4 + L_4_5_5 <= 1
Edge_Trans_UB_0_0_0_1: E_0_0_1 + L_0_0_0 - L_0_0_1 <= 1
Edge_Trans_UB_0_0_0_2: E_0_0_2 + L_0_0_0 - L_0_0_2 <= 1
Edge_Trans_UB_0_0_0_3: E_0_0_3 + L_0_0_0 - L_0_0_3 <= 1
Edge_Trans_UB_0_0_0_4: E_0_0_4 + L_0_0_0 - L_0_0_4 <= 1
Edge_Trans_UB_0_0_0_5: E_0_0_5 + L_0_0_0 - L_0_0_5 <= 1
Edge_Trans_UB_0_0_1_2: E_0_1_2 + L_0_0_1 - L_0_0_2 <= 1
Edge_Trans_UB_0_0_1_3: E_0_1_3 + L_0_0_1 - L_0_0_3 <= 1
Edge_Trans_UB_0_0_1_4: E_0_1_4 + L_0_0_1 - L_0_0_4 <= 1
Edge_Trans_UB_0_0_1_5: E_0_1_5 + L_0_0_1 - L_0_0_5 <= 1
Edge_Trans_UB_0_0_2_3: E_0_2_3 + L_0_0_2 - L_0_0_3 <= 1
Edge_Trans_UB_0_0_2_4: E_0_2_4 + L_0_0_2 - L_0_0_4 <= 1
Edge_Trans_UB_0_0_2_5: E_0_2_5 + L_0_0_2 - L_0_0_5 <= 1
Edge_Trans_UB_0_0_3_4: E_0_3_4 + L_0_0_3 - L_0_0_4 <= 1
Edge_Trans_UB_0_0_3_5: E_0_3_5 + L_0_0_3 - L_0_0_5 <= 1
Edge_Trans_UB_0_0_4_5: E_0_4_5 + L_0_0_4 - L_0_0_5 <= 1
Edge_Trans_UB_0_1_0_1: E_0_0_1 + L_0_1_0 - L_0_1_1 <= 1
Edge_Trans_UB_0_1_0_2: E_0_0_2 + L_0_1_0 - L_0_1_2 <= 1
Edge_Trans_UB_0_1_0_3: E_0_0_3 + L_0_1_0 - L_0_1_3 <= 1
Edge_Trans_UB_0_1_0_4: E_0_0_4 + L_0_1_0 - L_0_1_4 <= 1
Edge_Trans_UB_0_1_0_5: E_0_0_5 + L_0_1_0 - L_0_1_5 <= 1
Edge_Trans_UB_0_1_1_2: E_0_1_2 + L_0_1_1 - L_0_1_2 <= 1
Edge_Trans_UB_0_1_1_3: E_0_1_3 + L_0_1_1 - L_0_1_3 <= 1
Edge_Trans_UB_0_1_1_4: E_0_1_4 + L_0_1_1 - L_0_1_4 <= 1
Edge_Trans_UB_0_1_1_5: E_0_1_5 + L_0_1_1 - L_0_1_5 <= 1
Edge_Trans_UB_0_1_2_3: E_0_2_3 + L_0_1_2 - L_0_1_3 <= 1
Edge_Trans_UB_0_1_2_4: E_0_2_4 + L_0_1_2 - L_0_1_4 <= 1
Edge_Trans_UB_0_1_2_5: E_0_2_5 + L_0_1_2 - L_0_1_5 <= 1
Edge_Trans_UB_0_1_3_4: E_0_3_4 + L_0_1_3 - L_0_1_4 <= 1
Edge_Trans_UB_0_1_3_5: E_0_3_5 + L_0_1_3 - L_0_1_5 <= 1
Edge_Trans_UB_0_1_4_5: E_0_4_5 + L_0_1_4 - L_0_1_5 <= 1
Edge_Trans_UB_0_2_0_1: E_0_0_1 + L_0_2_0 - L_0_2_1 <= 1
Edge_Trans_UB_0_2_0_2: E_0_0_2 + L_0_2_0 - L_0_2_2 <= 1
Edge_Trans_UB_0_2_0_3: E_0_0_3 + L_0_2_0 - L_0_2_3 <= 1
Edge_Trans_UB_0_2_0_4: E_0_0_4 + L_0_2_0 - L_0_2_4 <= 1
Edge_Trans_UB_0_2_0_5: E_0_0_5 + L_0_2_0 - L_0_2_5 <= 1
Edge_Trans_UB_0_2_1_2: E_0_1_2 + L_0_2_1 - L_0_2_2 <= 1
Edge_Trans_UB_0_2_1_3: E_0_1_3 + L_0_2_1 - L_0_2_3 <= 1
Edge_Trans_UB_0_2_1_4: E_0_1_4 + L_0_2_1 - L_0_2_4 <= 1
Edge_Trans_UB_0_2_1_5: E_0_1_5 + L_0_2_1 - L_0_2_5 <= 1
Edge_Trans_UB_0_2_2_3: E_0_2_3 + L_0_2_2 - L_0_2_3 <= 1
Edge_Trans_UB_0_2_2_4: E_0_2_4 + L_0_2_2 - L_0_2_4 <= 1
Edge_Trans_UB_0_2_2_5: E_0_2_5 + L_0_2_2 - L_0_2_5 <= 1
Edge_Trans_UB_0_2_3_4: E_0_3_4 + L_0_2_3 - L_0_2_4 <= 1
Edge_Trans_UB_0_2_3_5: E_0_3_5 + L_0_2_3 - L_0_2_5 <= 1
Edge_Trans_UB_0_2_4_5: E_0_4_5 + L_0_2_4 - L_0_2_5 <= 1
Edge_Trans_UB_0_3_0_1: E_0_0_1 + L_0_3_0 - L_0_3_1 <= 1
Edge_Trans_UB_0_3_0_2: E_0_0_2 + L_0_3_0 - L_0_3_2 <= 1
Edge_Trans_UB_0_3_0_3: E_0_0_3 + L_0_3_0 - L_0_3_3 <= 1
Edge_Trans_UB_0_3_0_4: E_0_0_4 + L_0_3_0 - L_0_3_4 <= 1
Edge_Trans_UB_0_3_0_5: E_0_0_5 + L_0_3_0 - L_0_3_5 <= 1
Edge_Trans_UB_0_3_1_2: E_0_1_2 + L_0_3_1 - L_0_3_2 <= 1
Edge_Trans_UB_0_3_1_3: E_0_1_3 + L_0_3_1 - L_0_3_3 <= 1
Edge_Trans_UB_0_3_1_4: E_0_1_4 + L_0_3_1 - L_0_3_4 <= 1
Edge_Trans_UB_0_3_1_5: E_0_1_5 + L_0_3_1 - L_0_3_5 <= 1
Edge_Trans_UB_0_3_2_3: E_0_2_3 + L_0_3_2 - L_0_3_3 <= 1
Edge_Trans_UB_0_3_2_4: E_0_2_4 + L_0_3_2 - L_0_3_4 <= 1
Edge_Trans_UB_0_3_2_5: E_0_2_5 + L_0_3_2 - L_0_3_5 <= 1
Edge_Trans_UB_0_3_3_4: E_0_3_4 + L_0_3_3 - L_0_3_4 <= 1
Edge_Trans_UB_0_3_3_5: E_0_3_5 + L_0_3_3 - L_0_3_5 <= 1
Edge_Trans_UB_0_3_4_5: E_0_4_5 + L_0_3_4 - L_0_3_5 <= 1
Edge_Trans_UB_0_4_0_1: E_0_0_1 + L_0_4_0 - L_0_4_1 <= 1
Edge_Trans_UB_0_4_0_2: E_0_0_2 + L_0_4_0 - L_0_4_2 <= 1
Edge_Trans_UB_0_4_0_3: E_0_0_3 + L_0_4_0 - L_0_4_3 <= 1
Edge_Trans_UB_0_4_0_4: E_0_0_4 + L_0_4_0 - L_0_4_4 <= 1
Edge_Trans_UB_0_4_0_5: E_0_0_5 + L_0_4_0 - L_0_4_5 <= 1
Edge_Trans_UB_0_4_1_2: E_0_1_2 + L_0_4_1 - L_0_4_2 <= 1
Edge_Trans_UB_0_4_1_3: E_0_1_3 + L_0_4_1 - L_0_4_3 <= 1
Edge_Trans_UB_0_4_1_4: E_0_1_4 + L_0_4_1 - L_0_4_4 <= 1
Edge_Trans_UB_0_4_1_5: E_0_1_5 + L_0_4_1 - L_0_4_5 <= 1
Edge_Trans_UB_0_4_2_3: E_0_2_3 + L_0_4_2 - L_0_4_3 <= 1
Edge_Trans_UB_0_4_2_4: E_0_2_4 + L_0_4_2 - L_0_4_4 <= 1
Edge_Trans_UB_0_4_2_5: E_0_2_5 + L_0_4_2 - L_0_4_5 <= 1
Edge_Trans_UB_0_4_3_4: E_0_3_4 + L_0_4_3 - L_0_4_4 <= 1
Edge_Trans_UB_0_4_3_5: E_0_3_5 + L_0_4_3 - L_0_4_5 <= 1
Edge_Trans_UB_0_4_4_5: E_0_4_5 + L_0_4_4 - L_0_4_5 <= 1
Edge_Trans_UB_0_5_0_1: E_0_0_1 + L_0_5_0 - L_0_5_1 <= 1
Edge_Trans_UB_0_5_0_2: E_0_0_2 + L_0_5_0 - L_0_5_2 <= 1
Edge_Trans_UB_0_5_0_3: E_0_0_3 + L_0_5_0 - L_0_5_3 <= 1
Edge_Trans_UB_0_5_0_4: E_0_0_4 + L_0_5_0 - L_0_5_4 <= 1
Edge_Trans_UB_0_5_0_5: E_0_0_5 + L_0_5_0 - L_0_5_5 <= 1
Edge_Trans_UB_0_5_1_2: E_0_1_2 + L_0_5_1 - L_0_5_2 <= 1
Edge_Trans_UB_0_5_1_3: E_0_1_3 + L_0_5_1 - L_0_5_3 <= 1
Edge_Trans_UB_0_5_1_4: E_0_1_4 + L_0_5_1 - L_0_5_4 <= 1
Edge_Trans_UB_0_5_1_5: E_0_1_5 + L_0_5_1 - L_0_5_5 <= 1
Edge_Trans_UB_0_5_2_3: E_0_2_3 + L_0_5_2 - L_0_5_3 <= 1
Edge_Trans_UB_0_5_2_4: E_0_2_4 + L_0_5_2 - L_0_5_4 <= 1
Edge_Trans_UB_0_5_2_5: E_0_2_5 + L_0_5_2 - L_0_5_5 <= 1
Edge_Trans_UB_0_5_3_4: E_0_3_4 + L_0_5_3 - L_0_5_4 <= 1
Edge_Trans_UB_0_5_3_5: E_0_3_5 + L_0_5_3 - L_0_5_5 <= 1
Edge_Trans_UB_0_5_4_5: E_0_4_5 + L_0_5_4 - L_0_5_5 <= 1
Edge_Trans_UB_1_0_0_1: E_1_0_1 + L_1_0_0 - L_1_0_1 <= 1
Edge_Trans_UB_1_0_0_2: E_1_0_2 + L_1_0_0 - L_1_0_2 <= 1
Edge_Trans_UB_1_0_0_3: E_1_0_3 + L_1_0_0 - L_1_0_3 <= 1
Edge_Trans_UB_1_0_0_4: E_1_0_4 + L_1_0_0 - L_1_0_4 <= 1
Edge_Trans_UB_1_0_0_5: E_1_0_5 + L_1_0_0 - L_1_0_5 <= 1
Edge_Trans_UB_1_0_1_2: E_1_1_2 + L_1_0_1 - L_1_0_2 <= 1
Edge_Trans_UB_1_0_1_3: E_1_1_3 + L_1_0_1 - L_1_0_3 <= 1
Edge_Trans_UB_1_0_1_4: E_1_1_4 + L_1_0_1 - L_1_0_4 <= 1
Edge_Trans_UB_1_0_1_5: E_1_1_5 + L_1_0_1 - L_1_0_5 <= 1
Edge_Trans_UB_1_0_2_3: E_1_2_3 + L_1_0_2 - L_1_0_3 <= 1
Edge_Trans_UB_1_0_2_4: E_1_2_4 + L_1_0_2 - L_1_0_4 <= 1
Edge_Trans_UB_1_0_2_5: E_1_2_5 + L_1_0_2 - L_1_0_5 <= 1
Edge_Trans_UB_1_0_3_4: E_1_3_4 + L_1_0_3 - L_1_0_4 <= 1
Edge_Trans_UB_1_0_3_5: E_1_3_5 + L_1_0_3 - L_1_0_5 <= 1
Edge_Trans_UB_1_0_4_5: E_1_4_5 + L_1_0_4 - L_1_0_5 <= 1
Edge_Trans_UB_1_1_0_1: E_1_0_1 + L_1_1_0 - L_1_1_1 <= 1
Edge_Trans_UB_1_1_0_2: E_1_0_2 + L_1_1_0 - L_1_1_2 <= 1
Edge_Trans_UB_1_1_0_3: E_1_0_3 + L_1_1_0 - L_1_1_3 <= 1
Edge_Trans_UB_1_1_0_4: E_1_0_4 + L_1_1_0 - L_1_1_4 <= 1
Edge_Trans_UB_1_1_0_5: E_1_0_5 + L_1_1_0 - L_1_1_5 <= 1
Edge_Trans_UB_1_1_1_2: E_1_1_2 + L_1_1_1 - L_1_1_2 <= 1
Edge_Trans_UB_1_1_1_3: E_1_1_3 + L_1_1_1 - L_1_1_3 <= 1
Edge_Trans_UB_1_1_1_4: E_1_1_4 + L_1_1_1 - L_1_1_4 <= 1
Edge_Trans_UB_1_1_1_5: E_1_1_5 + L_1_1_1 - L_1_1_5 <= 1
Edge_Trans_UB_1_1_2_3: E_1_2_3 + L_1_1_2 - L_1_1_3 <= 1
Edge_Trans_UB_1_1_2_4: E_1_2_4 + L_1_1_2 - L_1_1_4 <= 1
Edge_Trans_UB_1_1_2_5: E_1_2_5 + L_1_1_2 - L_1_1_5 <= 1
Edge_Trans_UB_1_1_3_4: E_1_3_4 + L_1_1_3 - L_1_1_4 <= 1
Edge_Trans_UB_1_1_3_5: E_1_3_5 + L_1_1_3 - L_1_1_5 <= 1
Edge_Trans_UB_1_1_4_5: E_1_4_5 + L_1_1_4 - L_1_1_5 <= 1
Edge_Trans_UB_1_2_0_1: E_1_0_1 + L_1_2_0 - L_1_2_1 <= 1
Edge_Trans_UB_1_2_0_2: E_1_0_2 + L_1_2_0 - L_1_2_2 <= 1
Edge_Trans_UB_1_2_0_3: E_1_0_3 + L_1_2_0 - L_1_2_3 <= 1
Edge_Trans_UB_1_2_0_4: E_1_0_4 + L_1_2_0 - L_1_2_4 <= 1
Edge_Trans_UB_1_2_0_5: E_1_0_5 + L_1_2_0 - L_1_2_5 <= 1
Edge_Trans_UB_1_2_1_2: E_1_1_2 + L_1_2_1 - L_1_2_2 <= 1
Edge_Trans_UB_1_2_1_3: E_1_1_3 + L_1_2_1 - L_1_2_3 <= 1
Edge_Trans_UB_1_2_1_4: E_1_1_4 + L_1_2_1 - L_1_2_4 <= 1
Edge_Trans_UB_1_2_1_5: E_1_1_5 + L_1_2_1 - L_1_2_5 <= 1
Edge_Trans_UB_1_2_2_3: E_1_2_3 + L_1_2_2 - L_1_2_3 <= 1
Edge_Trans_UB_1_2_2_4: E_1_2_4 + L_1_2_2 - L_1_2_4 <= 1
Edge_Trans_UB_1_2_2_5: E_1_2_5 + L_1_2_2 - L_1_2_5 <= 1
Edge_Trans_UB_1_2_3_4: E_1_3_4 + L_1_2_3 - L_1_2_4 <= 1
Edge_Trans_UB_1_2_3_5: E_1_3_5 + L_1_2_3 - L_1_2_5 <= 1
Edge_Trans_UB_1_2_4_5: E_1_4_5 + L_1_2_4 - L_1_2_5 <= 1
Edge_Trans_UB_1_3_0_1: E_1_0_1 + L_1_3_0 - L_1_3_1 <= 1
Edge_Trans_UB_1_3_0_2: E_1_0_2 + L_1_3_0 - L_1_3_2 <= 1
Edge_Trans_UB_1_3_0_3: E_1_0_3 + L_1_3_0 - L_1_3_3 <= 1
Edge_Trans_UB_1_3_0_4: E_1_0_4 + L_1_3_0 - L_1_3_4 <= 1
Edge_Trans_UB_1_3_0_5: E_1_0_5 + L_1_3_0 - L_1_3_5 <= 1
Edge_Trans_UB_1_3_1_2: E_1_1_2 + L_1_3_1 - L_1_3_2 <= 1
Edge_Trans_UB_1_3_1_3: E_1_1_3 + L_1_3_1 - L_1_3_3 <= 1
Edge_Trans_UB_1_3_1_4: E_1_1_4 + L_1_3_1 - L_1_3_4 <= 1
Edge_Trans_UB_1_3_1_5: E_1_1_5 + L_1_3_1 - L_1_3_5 <= 1
Edge_Trans_UB_1_3_2_3: E_1_2_3 + L_1_3_2 - L_1_3_3 <= 1
Edge_Trans_UB_1_3_2_4: E_1_2_4 + L_1_3_2 - L_1_3_4 <= 1
Edge_Trans_UB_1_3_2_5: E_1_2_5 + L_1_3_2 - L_1_3_5 <= 1
Edge_Trans_UB_1_3_3_4: E_1_3_4 + L_1_3_3 - L_1_3_4 <= 1
Edge_Trans_UB_1_3_3_5: E_1_3_5 + L_1_3_3 - L_1_3_5 <= 1
Edge_Trans_UB_1_3_4_5: E_1_4_5 + L_1_3_4 - L_1_3_5 <= 1
Edge_Trans_UB_1_4_0_1: E_1_0_1 + L_1_4_0 - L_1_4_1 <= 1
Edge_Trans_UB_1_4_0_2: E_1_0_2 + L_1_4_0 - L_1_4_2 <= 1
Edge_Trans_UB_1_4_0_3: E_1_0_3 + L_1_4_0 - L_1_4_3 <= 1
Edge_Trans_UB_1_4_0_4: E_1_0_4 + L_1_4_0 - L_1_4_4 <= 1
Edge_Trans_UB_1_4_0_5: E_1_0_5 + L_1_4_0 - L_1_4_5 <= 1
Edge_Trans_UB_1_4_1_2: E_1_1_2 + L_1_4_1 - L_1_4_2 <= 1
Edge_Trans_UB_1_4_1_3: E_1_1_3 + L_1_4_1 - L_1_4_3 <= 1
Edge_Trans_UB_1_4_1_4: E_1_1_4 + L_1_4_1 - L_1_4_4 <= 1
Edge_Trans_UB_1_4_1_5: E_1_1_5 + L_1_4_1 - L_1_4_5 <= 1
Edge_Trans_UB_1_4_2_3: E_1_2_3 + L_1_4_2 - L_1_4_3 <= 1
Edge_Trans_UB_1_4_2_4: E_1_2_4 + L_1_4_2 - L_1_4_4 <= 1
Edge_Trans_UB_1_4_2_5: E_1_2_5 + L_1_4_2 - L_1_4_5 <= 1
Edge_Trans_UB_1_4_3_4: E_1_3_4 + L_1_4_3 - L_1_4_4 <= 1
Edge_Trans_UB_1_4_3_5: E_1_3_5 + L_1_4_3 - L_1_4_5 <= 1
Edge_Trans_UB_1_4_4_5: E_1_4_5 + L_1_4_4 - L_1_4_5 <= 1
Edge_Trans_UB_1_5_0_1: E_1_0_1 + L_1_5_0 - L_1_5_1 <= 1
Edge_Trans_UB_1_5_0_2: E_1_0_2 + L_1_5_0 - L_1_5_2 <= 1
Edge_Trans_UB_1_5_0_3: E_1_0_3 + L_1_5_0 - L_1_5_3 <= 1
Edge_Trans_UB_1_5_0_4: E_1_0_4 + L_1_5_0 - L_1_5_4 <= 1
Edge_Trans_UB_1_5_0_5: E_1_0_5 + L_1_5_0 - L_1_5_5 <= 1
Edge_Trans_UB_1_5_1_2: E_1_1_2 + L_1_5_1 - L_1_5_2 <= 1
Edge_Trans_UB_1_5_1_3: E_1_1_3 + L_1_5_1 - L_1_5_3 <= 1
Edge_Trans_UB_1_5_1_4: E_1_1_4 + L_1_5_1 - L_1_5_4 <= 1
Edge_Trans_UB_1_5_1_5: E_1_1_5 + L_1_5_1 - L_1_5_5 <= 1
Edge_Trans_UB_1_5_2_3: E_1_2_3 + L_1_5_2 - L_1_5_3 <= 1
Edge_Trans_UB_1_5_2_4: E_1_2_4 + L_1_5_2 - L_1_5_4 <= 1
Edge_Trans_UB_1_5_2_5: E_1_2_5 + L_1_5_2 - L_1_5_5 <= 1
Edge_Trans_UB_1_5_3_4: E_1_3_4 + L_1_5_3 - L_1_5_4 <= 1
Edge_Trans_UB_1_5_3_5: E_1_3_5 + L_1_5_3 - L_1_5_5 <= 1
Edge_Trans_UB_1_5_4_5: E_1_4_5 + L_1_5_4 - L_1_5_5 <= 1
Edge_Trans_UB_2_0_0_1: E_2_0_1 + L_2_0_0 - L_2_0_1 <= 1
Edge_Trans_UB_2_0_0_2: E_2_0_2 + L_2_0_0 - L_2_0_2 <= 1
Edge_Trans_UB_2_0_0_3: E_2_0_3 + L_2_0_0 - L_2_0_3 <= 1
Edge_Trans_UB_2_0_0_4: E_2_0_4 + L_2_0_0 - L_2_0_4 <= 1
Edge_Trans_UB_2_0_0_5: E_2_0_5 + L_2_0_0 - L_2_0_5 <= 1
Edge_Trans_UB_2_0_1_2: E_2_1_2 + L_2_0_1 - L_2_0_2 <= 1
Edge_Trans_UB_2_0_1_3: E_2_1_3 + L_2_0_1 - L_2_0_3 <= 1
Edge_Trans_UB_2_0_1_4: E_2_1_4 + L_2_0_1 - L_2_0_4 <= 1
Edge_Trans_UB_2_0_1_5: E_2_1_5 + L_2_0_1 - L_2_0_5 <= 1
Edge_Trans_UB_2_0_2_3: E_2_2_3 + L_2_0_2 - L_2_0_3 <= 1
Edge_Trans_UB_2_0_2_4: E_2_2_4 + L_2_0_2 - L_2_0_4 <= 1
Edge_Trans_UB_2_0_2_5: E_2_2_5 + L_2_0_2 - L_2_0_5 <= 1
Edge_Trans_UB_2_0_3_4: E_2_3_4 + L_2_0_3 - L_2_0_4 <= 1
Edge_Trans_UB_2_0_3_5: E_2_3_5 + L_2_0_3 - L_2_0_5 <= 1
Edge_Trans_UB_2_0_4_5: E_2_4_5 + L_2_0_4 - L_2_0_5 <= 1
Edge_Trans_UB_2_1_0_1: E_2_0_1 + L_2_1_0 - L_2_1_1 <= 1
Edge_Trans_UB_2_1_0_2: E_2_0_2 + L_2_1_0 - L_2_1_2 <= 1
Edge_Trans_UB_2_1_0_3: E_2_0_3 + L_2_1_0 - L_2_1_3 <= 1
Edge_Trans_UB_2_1_0_4: E_2_0_4 + L_2_1_0 - L_2_1_4 <= 1
Edge_Trans_UB_2_1_0_5: E_2_0_5 + L_2_1_0 - L_2_1_5 <= 1
Edge_Trans_UB_2_1_1_2: E_2_1_2 + L_2_1_1 - L_2_1_2 <= 1
Edge_Trans_UB_2_1_1_3: E_2_1_3 + L_2_1_1 - L_2_1_3 <= 1
Edge_Trans_UB_2_1_1_4: E_2_1_4 + L_2_1_1 - L_2_1_4 <= 1
Edge_Trans_UB_2_1_1_5: E_2_1_5 + L_2_1_1 - L_2_1_5 <= 1
Edge_Trans_UB_2_1_2_3: E_2_2_3 + L_2_1_2 - L_2_1_3 <= 1
Edge_Trans_UB_2_1_2_4: E_2_2_4 + L_2_1_2 - L_2_1_4 <= 1
Edge_Trans_UB_2_1_2_5: E_2_2_5 + L_2_1_2 - L_2_1_5 <= 1
Edge_Trans_UB_2_1_3_4: E_2_3_4 + L_2_1_3 - L_2_1_4 <= 1
Edge_Trans_UB_2_1_3_5: E_2_3_5 + L_2_1_3 - L_2_1_5 <= 1
Edge_Trans_UB_2_1_4_5: E_2_4_5 + L_2_1_4 - L_2_1_5 <= 1
Edge_Trans_UB_2_2_0_1: E_2_0_1 + L_2_2_0 - L_2_2_1 <= 1
Edge_Trans_UB_2_2_0_2: E_2_0_2 + L_2_2_0 - L_2_2_2 <= 1
Edge_Trans_UB_2_2_0_3: E_2_0_3 + L_2_2_0 - L_2_2_3 <= 1
Edge_Trans_UB_2_2_0_4: E_2_0_4 + L_2_2_0 - L_2_2_4 <= 1
Edge_Trans_UB_2_2_0_5: E_2_0_5 + L_2_2_0 - L_2_2_5 <= 1
Edge_Trans_UB_2_2_1_2: E_2_1_2 + L_2_2_1 - L_2_2_2 <= 1
Edge_Trans_UB_2_2_1_3: E_2_1_3 + L_2_2_1 - L_2_2_3 <= 1
Edge_Trans_UB_2_2_1_4: E_2_1_4 + L_2_2_1 - L_2_2_4 <= 1
Edge_Trans_UB_2_2_1_5: E_2_1_5 + L_2_2_1 - L_2_2_5 <= 1
Edge_Trans_UB_2_2_2_3: E_2_2_3 + L_2_2_2 - L_2_2_3 <= 1
Edge_Trans_UB_2_2_2_4: E_2_2_4 + L_2_2_2 - L_2_2_4 <= 1
Edge_Trans_UB_2_2_2_5: E_2_2_5 + L_2_2_2 - L_2_2_5 <= 1
Edge_Trans_UB_2_2_3_4: E_2_3_4 + L_2_2_3 - L_2_2_4 <= 1
Edge_Trans_UB_2_2_3_5: E_2_3_5 + L_2_2_3 - L_2_2_5 <= 1
Edge_Trans_UB_2_2_4_5: E_2_4_5 + L_2_2_4 - L_2_2_5 <= 1
Edge_Trans_UB_2_3_0_1: E_2_0_1 + L_2_3_0 - L_2_3_1 <= 1
Edge_Trans_UB_2_3_0_2: E_2_0_2 + L_2_3_0 - L_2_3_2 <= 1
Edge_Trans_UB_2_3_0_3: E_2_0_3 + L_2_3_0 - L_2_3_3 <= 1
Edge_Trans_UB_2_3_0_4: E_2_0_4 + L_2_3_0 - L_2_3_4 <= 1
Edge_Trans_UB_2_3_0_5: E_2_0_5 + L_2_3_0 - L_2_3_5 <= 1
Edge_Trans_UB_2_3_1_2: E_2_1_2 + L_2_3_1 - L_2_3_2 <= 1
Edge_Trans_UB_2_3_1_3: E_2_1_3 + L_2_3_1 - L_2_3_3 <= 1
Edge_Trans_UB_2_3_1_4: E_2_1_4 + L_2_3_1 - L_2_3_4 <= 1
Edge_Trans_UB_2_3_1_5: E_2_1_5 + L_2_3_1 - L_2_3_5 <= 1
Edge_Trans_UB_2_3_2_3: E_2_2_3 + L_2_3_2 - L_2_3_3 <= 1
Edge_Trans_UB_2_3_2_4: E_2_2_4 + L_2_3_2 - L_2_3_4 <= 1
Edge_Trans_UB_2_3_2_5: E_2_2_5 + L_2_3_2 - L_2_3_5 <= 1
Edge_Trans_UB_2_3_3_4: E_2_3_4 + L_2_3_3 - L_2_3_4 <= 1
Edge_Trans_UB_2_3_3_5: E_2_3_5 + L_2_3_3 - L_2_3_5 <= 1
Edge_Trans_UB_2_3_4_5: E_2_4_5 + L_2_3_4 - L_2_3_5 <= 1
Edge_Trans_UB_2_4_0_1: E_2_0_1 + L_2_4_0 - L_2_4_1 <= 1
Edge_Trans_UB_2_4_0_2: E_2_0_2 + L_2_4_0 - L_2_4_2 <= 1
Edge_Trans_UB_2_4_0_3: E_2_0_3 + L_2_4_0 - L_2_4_3 <= 1
Edge_Trans_UB_2_4_0_4: E_2_0_4 + L_2_4_0 - L_2_4_4 <= 1
Edge_Trans_UB_2_4_0_5: E_2_0_5 + L_2_4_0 - L_2_4_5 <= 1
Edge_Trans_UB_2_4_1_2: E_2_1_2 + L_2_4_1 - L_2_4_2 <= 1
Edge_Trans_UB_2_4_1_3: E_2_1_3 + L_2_4_1 - L_2_4_3 <= 1
Edge_Trans_UB_2_4_1_4: E_2_1_4 + L_2_4_1 - L_2_4_4 <= 1
Edge_Trans_UB_2_4_1_5: E_2_1_5 + L_2_4_1 - L_2_4_5 <= 1
Edge_Trans_UB_2_4_2_3: E_2_2_3 + L_2_4_2 - L_2_4_3 <= 1
Edge_Trans_UB_2_4_2_4: E_2_2_4 + L_2_4_2 - L_2_4_4 <= 1
Edge_Trans_UB_2_4_2_5: E_2_2_5 + L_2_4_2 - L_2_4_5 <= 1
Edge_Trans_UB_2_4_3_4: E_2_3_4 + L_2_4_3 - L_2_4_4 <= 1
Edge_Trans_UB_2_4_3_5: E_2_3_5 + L_2_4_3 - L_2_4_5 <= 1
Edge_Trans_UB_2_4_4_5: E_2_4_5 + L_2_4_4 - L_2_4_5 <= 1
Edge_Trans_UB_2_5_0_1: E_2_0_1 + L_2_5_0 - L_2_5_1 <= 1
Edge_Trans_UB_2_5_0_2: E_2_0_2 + L_2_5_0 - L_2_5_2 <= 1
Edge_Trans_UB_2_5_0_3: E_2_0_3 + L_2_5_0 - L_2_5_3 <= 1
Edge_Trans_UB_2_5_0_4: E_2_0_4 + L_2_5_0 - L_2_5_4 <= 1
Edge_Trans_UB_2_5_0_5: E_2_0_5 + L_2_5_0 - L_2_5_5 <= 1
Edge_Trans_UB_2_5_1_2: E_2_1_2 + L_2_5_1 - L_2_5_2 <= 1
Edge_Trans_UB_2_5_1_3: E_2_1_3 + L_2_5_1 - L_2_5_3 <= 1
Edge_Trans_UB_2_5_1_4: E_2_1_4 + L_2_5_1 - L_2_5_4 <= 1
Edge_Trans_UB_2_5_1_5: E_2_1_5 + L_2_5_1 - L_2_5_5 <= 1
Edge_Trans_UB_2_5_2_3: E_2_2_3 + L_2_5_2 - L_2_5_3 <= 1
Edge_Trans_UB_2_5_2_4: E_2_2_4 + L_2_5_2 - L_2_5_4 <= 1
Edge_Trans_UB_2_5_2_5: E_2_2_5 + L_2_5_2 - L_2_5_5 <= 1
Edge_Trans_UB_2_5_3_4: E_2_3_4 + L_2_5_3 - L_2_5_4 <= 1
Edge_Trans_UB_2_5_3_5: E_2_3_5 + L_2_5_3 - L_2_5_5 <= 1
Edge_Trans_UB_2_5_4_5: E_2_4_5 + L_2_5_4 - L_2_5_5 <= 1
Edge_Trans_UB_3_0_0_1: E_3_0_1 + L_3_0_0 - L_3_0_1 <= 1
Edge_Trans_UB_3_0_0_2: E_3_0_2 + L_3_0_0 - L_3_0_2 <= 1
Edge_Trans_UB_3_0_0_3: E_3_0_3 + L_3_0_0 - L_3_0_3 <= 1
Edge_Trans_UB_3_0_0_4: E_3_0_4 + L_3_0_0 - L_3_0_4 <= 1
Edge_Trans_UB_3_0_0_5: E_3_0_5 + L_3_0_0 - L_3_0_5 <= 1
Edge_Trans_UB_3_0_1_2: E_3_1_2 + L_3_0_1 - L_3_0_2 <= 1
Edge_Trans_UB_3_0_1_3: E_3_1_3 + L_3_0_1 - L_3_0_3 <= 1
Edge_Trans_UB_3_0_1_4: E_3_1_4 + L_3_0_1 - L_3_0_4 <= 1
Edge_Trans_UB_3_0_1_5: E_3_1_5 + L_3_0_1 - L_3_0_5 <= 1
Edge_Trans_UB_3_0_2_3: E_3_2_3 + L_3_0_2 - L_3_0_3 <= 1
Edge_Trans_UB_3_0_2_4: E_3_2_4 + L_3_0_2 - L_3_0_4 <= 1
Edge_Trans_UB_3_0_2_5: E_3_2_5 + L_3_0_2 - L_3_0_5 <= 1
Edge_Trans_UB_3_0_3_4: E_3_3_4 + L_3_0_3 - L_3_0_4 <= 1
Edge_Trans_UB_3_0_3_5: E_3_3_5 + L_3_0_3 - L_3_0_5 <= 1
Edge_Trans_UB_3_0_4_5: E_3_4_5 + L_3_0_4 - L_3_0_5 <= 1
Edge_Trans_UB_3_1_0_1: E_3_0_1 + L_3_1_0 - L_3_1_1 <= 1
Edge_Trans_UB_3_1_0_2: E_3_0_2 + L_3_1_0 - L_3_1_2 <= 1
Edge_Trans_UB_3_1_0_3: E_3_0_3 + L_3_1_0 - L_3_1_3 <= 1
Edge_Trans_UB_3_1_0_4: E_3_0_4 + L_3_1_0 - L_3_1_4 <= 1
Edge_Trans_UB_3_1_0_5: E_3_0_5 + L_3_1_0 - L_3_1_5 <= 1
Edge_Trans_UB_3_1_1_2: E_3_1_2 + L_3_1_1 - L_3_1_2 <= 1
Edge_Trans_UB_3_1_1_3: E_3_1_3 + L_3_1_1 - L_3_1_3 <= 1
Edge_Trans_UB_3_1_1_4: E_3_1_4 + L_3_1_1 - L_3_1_4 <= 1
Edge_Trans_UB_3_1_1_5: E_3_1_5 + L_3_1_1 - L_3_1_5 <= 1
Edge_Trans_UB_3_1_2_3: E_3_2_3 + L_3_1_2 - L_3_1_3 <= 1
Edge_Trans_UB_3_1_2_4: E_3_2_4 + L_3_1_2 - L_3_1_4 <= 1
Edge_Trans_UB_3_1_2_5: E_3_2_5 + L_3_1_2 - L_3_1_5 <= 1
Edge_Trans_UB_3_1_3_4: E_3_3_4 + L_3_1_3 - L_3_1_4 <= 1
Edge_Trans_UB_3_1_3_5: E_3_3_5 + L_3_1_3 - L_3_1_5 <= 1
Edge_Trans_UB_3_1_4_5: E_3_4_5 + L_3_1_4 - L_3_1_5 <= 1
Edge_Trans_UB_3_2_0_1: E_3_0_1 + L_3_2_0 - L_3_2_1 <= 1
Edge_Trans_UB_3_2_0_2: E_3_0_2 + L_3_2_0 - L_3_2_2 <= 1
Edge_Trans_UB_3_2_0_3: E_3_0_3 + L_3_2_0 - L_3_2_3 <= 1
Edge_Trans_UB_3_2_0_4: E_3_0_4 + L_3_2_0 - L_3_2_4 <= 1
Edge_Trans_UB_3_2_0_5: E_3_0_5 + L_3_2_0 - L_3_2_5 <= 1
Edge_Trans_UB_3_2_1_2: E_3_1_2 + L_3_2_1 - L_3_2_2 <= 1
Edge_Trans_UB_3_2_1_3: E_3_1_3 + L_3_2_1 - L_3_2_3 <= 1
Edge_Trans_UB_3_2_1_4: E_3_1_4 + L_3_2_1 - L_3_2_4 <= 1
Edge_Trans_UB_3_2_1_5: E_3_1_5 + L_3_2_1 - L_3_2_5 <= 1
Edge_Trans_UB_3_2_2_3: E_3_2_3 + L_3_2_2 - L_3_2_3 <= 1
Edge_Trans_UB_3_2_2_4: E_3_2_4 + L_3_2_2 - L_3_2_4 <= 1
Edge_Trans_UB_3_2_2_5: E_3_2_5 + L_3_2_2 - L_3_2_5 <= 1
Edge_Trans_UB_3_2_3_4: E_3_3_4 + L_3_2_3 - L_3_2_4 <= 1
Edge_Trans_UB_3_2_3_5: E_3_3_5 + L_3_2_3 - L_3_2_5 <= 1
Edge_Trans_UB_3_2_4_5: E_3_4_5 + L_3_2_4 - L_3_2_5 <= 1
Edge_Trans_UB_3_3_0_1: E_3_0_1 + L_3_3_0 - L_3_3_1 <= 1
Edge_Trans_UB_3_3_0_2: E_3_0_2 + L_3_3_0 - L_3_3_2 <= 1
Edge_Trans_UB_3_3_0_3: E_3_0_3 + L_3_3_0 - L_3_3_3 <= 1
Edge_Trans_UB_3_3_0_4: E_3_0_4 + L_3_3_0 - L_3_3_4 <= 1
Edge_Trans_UB_3_3_0_5: E_3_0_5 + L_3_3_0 - L_3_3_5 <= 1
Edge_Trans_UB_3_3_1_2: E_3_1_2 + L_3_3_1 - L_3_3_2 <= 1
Edge_Trans_UB_3_3_1_3: E_3_1_3 + L_3_3_1 - L_3_3_3 <= 1
Edge_Trans_UB_3_3_1_4: E_3_1_4 + L_3_3_1 - L_3_3_4 <= 1
Edge_Trans_UB_3_3_1_5: E_3_1_5 + L_3_3_1 - L_3_3_5 <= 1
Edge_Trans_UB_3_3_2_3: E_3_2_3 + L_3_3_2 - L_3_3_3 <= 1
Edge_Trans_UB_3_3_2_4: E_3_2_4 + L_3_3_2 - L_3_3_4 <= 1
Edge_Trans_UB_3_3_2_5: E_3_2_5 + L_3_3_2 - L_3_3_5 <= 1
Edge_Trans_UB_3_3_3_4: E_3_3_4 + L_3_3_3 - L_3_3_4 <= 1
Edge_Trans_UB_3_3_3_5: E_3_3_5 + L_3_3_3 - L_3_3_5 <= 1
Edge_Trans_UB_3_3_4_5: E_3_4_5 + L_3_3_4 - L_3_3_5 <= 1
Edge_Trans_UB_3_4_0_1: E_3_0_1 + L_3_4_0 - L_3_4_1 <= 1
Edge_Trans_UB_3_4_0_2: E_3_0_2 + L_3_4_0 - L_3_4_2 <= 1
Edge_Trans_UB_3_4_0_3: E_3_0_3 + L_3_4_0 - L_3_4_3 <= 1
Edge_Trans_UB_3_4_0_4: E_3_0_4 + L_3_4_0 - L_3_4_4 <= 1
Edge_Trans_UB_3_4_0_5: E_3_0_5 + L_3_4_0 - L_3_4_5 <= 1
Edge_Trans_UB_3_4_1_2: E_3_1_2 + L_3_4_1 - L_3_4_2 <= 1
Edge_Trans_UB_3_4_1_3: E_3_1_3 + L_3_4_1 - L_3_4_3 <= 1
Edge_Trans_UB_3_4_1_4: E_3_1_4 + L_3_4_1 - L_3_4_4 <= 1
Edge_Trans_UB_3_4_1_5: E_3_1_5 + L_3_4_1 - L_3_4_5 <= 1
Edge_Trans_UB_3_4_2_3: E_3_2_3 + L_3_4_2 - L_3_4_3 <= 1
Edge_Trans_UB_3_4_2_4: E_3_2_4 + L_3_4_2 - L_3_4_4 <= 1
Edge_Trans_UB_3_4_2_5: E_3_2_5 + L_3_4_2 - L_3_4_5 <= 1
Edge_Trans_UB_3_4_3_4: E_3_3_4 + L_3_4_3 - L_3_4_4 <= 1
Edge_Trans_UB_3_4_3_5: E_3_3_5 + L_3_4_3 - L_3_4_5 <= 1
Edge_Trans_UB_3_4_4_5: E_3_4_5 + L_3_4_4 - L_3_4_5 <= 1
Edge_Trans_UB_3_5_0_1: E_3_0_1 + L_3_5_0 - L_3_5_1 <= 1
Edge_Trans_UB_3_5_0_2: E_3_0_2 + L_3_5_0 - L_3_5_2 <= 1
Edge_Trans_UB_3_5_0_3: E_3_0_3 + L_3_5_0 - L_3_5_3 <= 1
Edge_Trans_UB_3_5_0_4: E_3_0_4 + L_3_5_0 - L_3_5_4 <= 1
Edge_Trans_UB_3_5_0_5: E_3_0_5 + L_3_5_0 - L_3_5_5 <= 1
Edge_Trans_UB_3_5_1_2: E_3_1_2 + L_3_5_1 - L_3_5_2 <= 1
Edge_Trans_UB_3_5_1_3: E_3_1_3 + L_3_5_1 - L_3_5_3 <= 1
Edge_Trans_UB_3_5_1_4: E_3_1_4 + L_3_5_1 - L_3_5_4 <= 1
Edge_Trans_UB_3_5_1_5: E_3_1_5 + L_3_5_1 - L_3_5_5 <= 1
Edge_Trans_UB_3_5_2_3: E_3_2_3 + L_3_5_2 - L_3_5_3 <= 1
Edge_Trans_UB_3_5_2_4: E_3_2_4 + L_3_5_2 - L_3_5_4 <= 1
Edge_Trans_UB_3_5_2_5: E_3_2_5 + L_3_5_2 - L_3_5_5 <= 1
Edge_Trans_UB_3_5_3_4: E_3_3_4 + L_3_5_3 - L_3_5_4 <= 1
Edge_Trans_UB_3_5_3_5: E_3_3_5 + L_3_5_3 - L_3_5_5 <= 1
Edge_Trans_UB_3_5_4_5: E_3_4_5 + L_3_5_4 - L_3_5_5 <= 1
Edge_Trans_UB_4_0_0_1: E_4_0_1 + L_4_0_0 - L_4_0_1 <= 1
Edge_Trans_UB_4_0_0_2: E_4_0_2 + L_4_0_0 - L_4_0_2 <= 1
Edge_Trans_UB_4_0_0_3: E_4_0_3 + L_4_0_0 - L_4_0_3 <= 1
Edge_Trans_UB_4_0_0_4: E_4_0_4 + L_4_0_0 - L_4_0_4 <= 1
Edge_Trans_UB_4_0_0_5: E_4_0_5 + L_4_0_0 - L_4_0_5 <= 1
Edge_Trans_UB_4_0_1_2: E_4_1_2 + L_4_0_1 - L_4_0_2 <= 1
Edge_Trans_UB_4_0_1_3: E_4_1_3 + L_4_0_1 - L_4_0_3 <= 1
Edge_Trans_UB_4_0_1_4: E_4_1_4 + L_4_0_1 - L_4_0_4 <= 1
Edge_Trans_UB_4_0_1_5: E_4_1_5 + L_4_0_1 - L_4_0_5 <= 1
Edge_Trans_UB_4_0_2_3: E_4_2_3 + L_4_0_2 - L_4_0_3 <= 1
Edge_Trans_UB_4_0_2_4: E_4_2_4 + L_4_0_2 - L_4_0_4 <= 1
Edge_Trans_UB_4_0_2_5: E_4_2_5 + L_4_0_2 - L_4_0_5 <= 1
Edge_Trans_UB_4_0_3_4: E_4_3_4 + L_4_0_3 - L_4_0_4 <= 1
Edge_Trans_UB_4_0_3_5: E_4_3_5 + L_4_0_3 - L_4_0_5 <= 1
Edge_Trans_UB_4_0_4_5: E_4_4_5 + L_4_0_4 - L_4_0_5 <= 1
Edge_Trans_UB_4_1_0_1: E_4_0_1 + L_4_1_0 - L_4_1_1 <= 1
Edge_Trans_UB_4_1_0_2: E_4_0_2 + L_4_1_0 - L_4_1_2 <= 1
Edge_Trans_UB_4_1_0_3: E_4_0_3 + L_4_1_0 - L_4_1_3 <= 1
Edge_Trans_UB_4_1_0_4: E_4_0_4 + L_4_1_0 - L_4_1_4 <= 1
Edge_Trans_UB_4_1_0_5: E_4_0_5 + L_4_1_0 - L_4_1_5 <= 1
Edge_Trans_UB_4_1_1_2: E_4_1_2 + L_4_1_1 - L_4_1_2 <= 1
Edge_Trans_UB_4_1_1_3: E_4_1_3 + L_4_1_1 - L_4_1_3 <= 1
Edge_Trans_UB_4_1_1_4: E_4_1_4 + L_4_1_1 - L_4_1_4 <= 1
Edge_Trans_UB_4_1_1_5: E_4_1_5 + L_4_1_1 - L_4_1_5 <= 1
Edge_Trans_UB_4_1_2_3: E_4_2_3 + L_4_1_2 - L_4_1_3 <= 1
Edge_Trans_UB_4_1_2_4: E_4_2_4 + L_4_1_2 - L_4_1_4 <= 1
Edge_Trans_UB_4_1_2_5: E_4_2_5 + L_4_1_2 - L_4_1_5 <= 1
Edge_Trans_UB_4_1_3_4: E_4_3_4 + L_4_1_3 - L_4_1_4 <= 1
Edge_Trans_UB_4_1_3_5: E_4_3_5 + L_4_1_3 - L_4_1_5 <= 1
Edge_Trans_UB_4_1_4_5: E_4_4_5 + L_4_1_4 - L_4_1_5 <= 1
Edge_Trans_UB_4_2_0_1: E_4_0_1 + L_4_2_0 - L_4_2_1 <= 1
Edge_Trans_UB_4_2_0_2: E_4_0_2 + L_4_2_0 - L_4_2_2 <= 1
Edge_Trans_UB_4_2_0_3: E_4_0_3 + L_4_2_0 - L_4_2_3 <= 1
Edge_Trans_UB_4_2_0_4: E_4_0_4 + L_4_2_0 - L_4_2_4 <= 1
Edge_Trans_UB_4_2_0_5: E_4_0_5 + L_4_2_0 - L_4_2_5 <= 1
Edge_Trans_UB_4_2_1_2: E_4_1_2 + L_4_2_1 - L_4_2_2 <= 1
Edge_Trans_UB_4_2_1_3: E_4_1_3 + L_4_2_1 - L_4_2_3 <= 1
Edge_Trans_UB_4_2_1_4: E_4_1_4 + L_4_2_1 - L_4_2_4 <= 1
Edge_Trans_UB_4_2_1_5: E_4_1_5 + L_4_2_1 - L_4_2_5 <= 1
Edge_Trans_UB_4_2_2_3: E_4_2_3 + L_4_2_2 - L_4_2_3 <= 1
Edge_Trans_UB_4_2_2_4: E_4_2_4 + L_4_2_2 - L_4_2_4 <= 1
Edge_Trans_UB_4_2_2_5: E_4_2_5 + L_4_2_2 - L_4_2_5 <= 1
Edge_Trans_UB_4_2_3_4: E_4_3_4 + L_4_2_3 - L_4_2_4 <= 1
Edge_Trans_UB_4_2_3_5: E_4_3_5 + L_4_2_3 - L_4_2_5 <= 1
Edge_Trans_UB_4_2_4_5: E_4_4_5 + L_4_2_4 - L_4_2_5 <= 1
Edge_Trans_UB_4_3_0_1: E_4_0_1 + L_4_3_0 - L_4_3_1 <= 1
Edge_Trans_UB_4_3_0_2: E_4_0_2 + L_4_3_0 - L_4_3_2 <= 1
Edge_Trans_UB_4_3_0_3: E_4_0_3 + L_4_3_0 - L_4_3_3 <= 1
Edge_Trans_UB_4_3_0_4: E_4_0_4 + L_4_3_0 - L_4_3_4 <= 1
Edge_Trans_UB_4_3_0_5: E_4_0_5 + L_4_3_0 - L_4_3_5 <= 1
Edge_Trans_UB_4_3_1_2: E_4_1_2 + L_4_3_1 - L_4_3_2 <= 1
Edge_Trans_UB_4_3_1_3: E_4_1_3 + L_4_3_1 - L_4_3_3 <= 1
Edge_Trans_UB_4_3_1_4: E_4_1_4 + L_4_3_1 - L_4_3_4 <= 1
Edge_Trans_UB_4_3_1_5: E_4_1_5 + L_4_3_1 - L_4_3_5 <= 1
Edge_Trans_UB_4_3_2_3: E_4_2_3 + L_4_3_2 - L_4_3_3 <= 1
Edge_Trans_UB_4_3_2_4: E_4_2_4 + L_4_3_2 - L_4_3_4 <= 1
Edge_Trans_UB_4_3_2_5: E_4_2_5 + L_4_3_2 - L_4_3_5 <= 1
Edge_Trans_UB_4_3_3_4: E_4_3_4 + L_4_3_3 - L_4_3_4 <= 1
Edge_Trans_UB_4_3_3_5: E_4_3_5 + L_4_3_3 - L_4_3_5 <= 1
Edge_Trans_UB_4_3_4_5: E_4_4_5 + L_4_3_4 - L_4_3_5 <= 1
Edge_Trans_UB_4_4_0_1: E_4_0_1 + L_4_4_0 - L_4_4_1 <= 1
Edge_Trans_UB_4_4_0_2: E_4_0_2 + L_4_4_0 - L_4_4_2 <= 1
Edge_Trans_UB_4_4_0_3: E_4_0_3 + L_4_4_0 - L_4_4_3 <= 1
Edge_Trans_UB_4_4_0_4: E_4_0_4 + L_4_4_0 - L_4_4_4 <= 1
Edge_Trans_UB_4_4_0_5: E_4_0_5 + L_4_4_0 - L_4_4_5 <= 1
Edge_Trans_UB_4_4_1_2: E_4_1_2 + L_4_4_1 - L_4_4_2 <= 1
Edge_Trans_UB_4_4_1_3: E_4_1_3 + L_4_4_1 - L_4_4_3 <= 1
Edge_Trans_UB_4_4_1_4: E_4_1_4 + L_4_4_1 - L_4_4_4 <= 1
Edge_Trans_UB_4_4_1_5: E_4_1_5 + L_4_4_1 - L_4_4_5 <= 1
Edge_Trans_UB_4_4_2_3: E_4_2_3 + L_4_4_2 - L_4_4_3 <= 1
Edge_Trans_UB_4_4_2_4: E_4_2_4 + L_4_4_2 - L_4_4_4 <= 1
Edge_Trans_UB_4_4_2_5: E_4_2_5 + L_4_4_2 - L_4_4_5 <= 1
Edge_Trans_UB_4_4_3_4: E_4_3_4 + L_4_4_3 - L_4_4_4 <= 1
Edge_Trans_UB_4_4_3_5: E_4_3_5 + L_4_4_3 - L_4_4_5 <= 1
Edge_Trans_UB_4_4_4_5: E_4_4_5 + L_4_4_4 - L_4_4_5 <= 1
Edge_Trans_UB_4_5_0_1: E_4_0_1 + L_4_5_0 - L_4_5_1 <= 1
Edge_Trans_UB_4_5_0_2: E_4_0_2 + L_4_5_0 - L_4_5_2 <= 1
Edge_Trans_UB_4_5_0_3: E_4_0_3 + L_4_5_0 - L_4_5_3 <= 1
Edge_Trans_UB_4_5_0_4: E_4_0_4 + L_4_5_0 - L_4_5_4 <= 1
Edge_Trans_UB_4_5_0_5: E_4_0_5 + L_4_5_0 - L_4_5_5 <= 1
Edge_Trans_UB_4_5_1_2: E_4_1_2 + L_4_5_1 - L_4_5_2 <= 1
Edge_Trans_UB_4_5_1_3: E_4_1_3 + L_4_5_1 - L_4_5_3 <= 1
Edge_Trans_UB_4_5_1_4: E_4_1_4 + L_4_5_1 - L_4_5_4 <= 1
Edge_Trans_UB_4_5_1_5: E_4_1_5 + L_4_5_1 - L_4_5_5 <= 1
Edge_Trans_UB_4_5_2_3: E_4_2_3 + L_4_5_2 - L_4_5_3 <= 1
Edge_Trans_UB_4_5_2_4: E_4_2_4 + L_4_5_2 - L_4_5_4 <= 1
Edge_Trans_UB_4_5_2_5: E_4_2_5 + L_4_5_2 - L_4_5_5 <= 1
Edge_Trans_UB_4_5_3_4: E_4_3_4 + L_4_5_3 - L_4_5_4 <= 1
Edge_Trans_UB_4_5_3_5: E_4_3_5 + L_4_5_3 - L_4_5_5 <= 1
Edge_Trans_UB_4_5_4_5: E_4_4_5 + L_4_5_4 - L_4_5_5 <= 1
F_AntiLeak_1_0_0_1_2: E_0_0_2 - E_1_0_2 + y_F_0_0_1 <= 1
F_AntiLeak_1_0_0_1_3: E_0_0_3 - E_1_0_3 + y_F_0_0_1 <= 1
F_AntiLeak_1_0_0_1_4: E_0_0_4 - E_1_0_4 + y_F_0_0_1 <= 1
F_AntiLeak_1_0_0_1_5: E_0_0_5 - E_1_0_5 + y_F_0_0_1 <= 1
F_AntiLeak_1_0_0_2_1: E_0_0_1 - E_1_0_1 + y_F_0_0_2 <= 1
F_AntiLeak_1_0_0_2_3: E_0_0_3 - E_1_0_3 + y_F_0_0_2 <= 1
F_AntiLeak_1_0_0_2_4: E_0_0_4 - E_1_0_4 + y_F_0_0_2 <= 1
F_AntiLeak_1_0_0_2_5: E_0_0_5 - E_1_0_5 + y_F_0_0_2 <= 1
F_AntiLeak_1_0_0_3_1: E_0_0_1 - E_1_0_1 + y_F_0_0_3 <= 1
F_AntiLeak_1_0_0_3_2: E_0_0_2 - E_1_0_2 + y_F_0_0_3 <= 1
F_AntiLeak_1_0_0_3_4: E_0_0_4 - E_1_0_4 + y_F_0_0_3 <= 1
F_AntiLeak_1_0_0_3_5: E_0_0_5 - E_1_0_5 + y_F_0_0_3 <= 1
F_AntiLeak_1_0_0_4_1: E_0_0_1 - E_1_0_1 + y_F_0_0_4 <= 1
F_AntiLeak_1_0_0_4_2: E_0_0_2 - E_1_0_2 + y_F_0_0_4 <= 1
F_AntiLeak_1_0_0_4_3: E_0_0_3 - E_1_0_3 + y_F_0_0_4 <= 1
F_AntiLeak_1_0_0_4_5: E_0_0_5 - E_1_0_5 + y_F_0_0_4 <= 1
F_AntiLeak_1_0_0_5_1: E_0_0_1 - E_1_0_1 + y_F_0_0_5 <= 1
F_AntiLeak_1_0_0_5_2: E_0_0_2 - E_1_0_2 + y_F_0_0_5 <= 1
F_AntiLeak_1_0_0_5_3: E_0_0_3 - E_1_0_3 + y_F_0_0_5 <= 1
F_AntiLeak_1_0_0_5_4: E_0_0_4 - E_1_0_4 + y_F_0_0_5 <= 1
F_AntiLeak_1_0_1_0_2: E_0_1_2 - E_1_1_2 + y_F_0_1_0 <= 1
F_AntiLeak_1_0_1_0_3: E_0_1_3 - E_1_1_3 + y_F_0_1_0 <= 1
F_AntiLeak_1_0_1_0_4: E_0_1_4 - E_1_1_4 + y_F_0_1_0 <= 1
F_AntiLeak_1_0_1_0_5: E_0_1_5 - E_1_1_5 + y_F_0_1_0 <= 1
F_AntiLeak_1_0_1_2_0: E_0_0_1 - E_1_0_1 + y_F_0_1_2 <= 1
F_AntiLeak_1_0_1_2_3: E_0_1_3 - E_1_1_3 + y_F_0_1_2 <= 1
F_AntiLeak_1_0_1_2_4: E_0_1_4 - E_1_1_4 + y_F_0_1_2 <= 1
F_AntiLeak_1_0_1_2_5: E_0_1_5 - E_1_1_5 + y_F_0_1_2 <= 1
F_AntiLeak_1_0_1_3_0: E_0_0_1 - E_1_0_1 + y_F_0_1_3 <= 1
F_AntiLeak_1_0_1_3_2: E_0_1_2 - E_1_1_2 + y_F_0_1_3 <= 1
F_AntiLeak_1_0_1_3_4: E_0_1_4 - E_1_1_4 + y_F_0_1_3 <= 1
F_AntiLeak_1_0_1_3_5: E_0_1_5 - E_1_1_5 + y_F_0_1_3 <= 1
F_AntiLeak_1_0_1_4_0: E_0_0_1 - E_1_0_1 + y_F_0_1_4 <= 1
F_AntiLeak_1_0_1_4_2: E_0_1_2 - E_1_1_2 + y_F_0_1_4 <= 1
F_AntiLeak_1_0_1_4_3: E_0_1_3 - E_1_1_3 + y_F_0_1_4 <= 1
F_AntiLeak_1_0_1_4_5: E_0_1_5 - E_1_1_5 + y_F_0_1_4 <= 1
F_AntiLeak_1_0_1_5_0: E_0_0_1 - E_1_0_1 + y_F_0_1_5 <= 1
F_AntiLeak_1_0_1_5_2: E_0_1_2 - E_1_1_2 + y_F_0_1_5 <= 1
F_AntiLeak_1_0_1_5_3: E_0_1_3 - E_1_1_3 + y_F_0_1_5 <= 1
F_AntiLeak_1_0_1_5_4: E_0_1_4 - E_1_1_4 + y_F_0_1_5 <= 1
F_AntiLeak_1_0_2_0_1: E_0_1_2 - E_1_1_2 + y_F_0_2_0 <= 1
F_AntiLeak_1_0_2_0_3: E_0_2_3 - E_1_2_3 + y_F_0_2_0 <= 1
F_AntiLeak_1_0_2_0_4: E_0_2_4 - E_1_2_4 + y_F_0_2_0 <= 1
F_AntiLeak_1_0_2_0_5: E_0_2_5 - E_1_2_5 + y_F_0_2_0 <= 1
F_AntiLeak_1_0_2_1_0: E_0_0_2 - E_1_0_2 + y_F_0_2_1 <= 1
F_AntiLeak_1_0_2_1_3: E_0_2_3 - E_1_2_3 + y_F_0_2_1 <= 1
F_AntiLeak_1_0_2_1_4: E_0_2_4 - E_1_2_4 + y_F_0_2_1 <= 1
F_AntiLeak_1_0_2_1_5: E_0_2_5 - E_1_2_5 + y_F_0_2_1 <= 1
F_AntiLeak_1_0_2_3_0: E_0_0_2 - E_1_0_2 + y_F_0_2_3 <= 1
F_AntiLeak_1_0_2_3_1: E_0_1_2 - E_1_1_2 + y_F_0_2_3 <= 1
F_AntiLeak_1_0_2_3_4: E_0_2_4 - E_1_2_4 + y_F_0_2_3 <= 1
F_AntiLeak_1_0_2_3_5: E_0_2_5 - E_1_2_5 + y_F_0_2_3 <= 1
F_AntiLeak_1_0_2_4_0: E_0_0_2 - E_1_0_2 + y_F_0_2_4 <= 1
F_AntiLeak_1_0_2_4_1: E_0_1_2 - E_1_1_2 + y_F_0_2_4 <= 1
F_AntiLeak_1_0_2_4_3: E_0_2_3 - E_1_2_3 + y_F_0_2_4 <= 1
F_AntiLeak_1_0_2_4_5: E_0_2_5 - E_1_2_5 + y_F_0_2_4 <= 1
F_AntiLeak_1_0_2_5_0: E_0_0_2 - E_1_0_2 + y_F_0_2_5 <= 1
F_AntiLeak_1_0_2_5_1: E_0_1_2 - E_1_1_2 + y_F_0_2_5 <= 1
F_AntiLeak_1_0_2_5_3: E_0_2_3 - E_1_2_3 + y_F_0_2_5 <= 1
F_AntiLeak_1_0_2_5_4: E_0_2_4 - E_1_2_4 + y_F_0_2_5 <= 1
F_AntiLeak_1_0_3_0_1: E_0_1_3 - E_1_1_3 + y_F_0_3_0 <= 1
F_AntiLeak_1_0_3_0_2: E_0_2_3 - E_1_2_3 + y_F_0_3_0 <= 1
F_AntiLeak_1_0_3_0_4: E_0_3_4 - E_1_3_4 + y_F_0_3_0 <= 1
F_AntiLeak_1_0_3_0_5: E_0_3_5 - E_1_3_5 + y_F_0_3_0 <= 1
F_AntiLeak_1_0_3_1_0: E_0_0_3 - E_1_0_3 + y_F_0_3_1 <= 1
F_AntiLeak_1_0_3_1_2: E_0_2_3 - E_1_2_3 + y_F_0_3_1 <= 1
F_AntiLeak_1_0_3_1_4: E_0_3_4 - E_1_3_4 + y_F_0_3_1 <= 1
F_AntiLeak_1_0_3_1_5: E_0_3_5 - E_1_3_5 + y_F_0_3_1 <= 1
F_AntiLeak_1_0_3_2_0: E_0_0_3 - E_1_0_3 + y_F_0_3_2 <= 1
F_AntiLeak_1_0_3_2_1: E_0_1_3 - E_1_1_3 + y_F_0_3_2 <= 1
F_AntiLeak_1_0_3_2_4: E_0_3_4 - E_1_3_4 + y_F_0_3_2 <= 1
F_AntiLeak_1_0_3_2_5: E_0_3_5 - E_1_3_5 + y_F_0_3_2 <= 1
F_AntiLeak_1_0_3_4_0: E_0_0_3 - E_1_0_3 + y_F_0_3_4 <= 1
F_AntiLeak_1_0_3_4_1: E_0_1_3 - E_1_1_3 + y_F_0_3_4 <= 1
F_AntiLeak_1_0_3_4_2: E_0_2_3 - E_1_2_3 + y_F_0_3_4 <= 1
F_AntiLeak_1_0_3_4_5: E_0_3_5 - E_1_3_5 + y_F_0_3_4 <= 1
F_AntiLeak_1_0_3_5_0: E_0_0_3 - E_1_0_3 + y_F_0_3_5 <= 1
F_AntiLeak_1_0_3_5_1: E_0_1_3 - E_1_1_3 + y_F_0_3_5 <= 1
F_AntiLeak_1_0_3_5_2: E_0_2_3 - E_1_2_3 + y_F_0_3_5 <= 1
F_AntiLeak_1_0_3_5_4: E_0_3_4 - E_1_3_4 + y_F_0_3_5 <= 1
F_AntiLeak_1_0_4_0_1: E_0_1_4 - E_1_1_4 + y_F_0_4_0 <= 1
F_AntiLeak_1_0_4_0_2: E_0_2_4 - E_1_2_4 + y_F_0_4_0 <= 1
F_AntiLeak_1_0_4_0_3: E_0_3_4 - E_1_3_4 + y_F_0_4_0 <= 1
F_AntiLeak_1_0_4_0_5: E_0_4_5 - E_1_4_5 + y_F_0_4_0 <= 1
F_AntiLeak_1_0_4_1_0: E_0_0_4 - E_1_0_4 + y_F_0_4_1 <= 1
F_AntiLeak_1_0_4_1_2: E_0_2_4 - E_1_2_4 + y_F_0_4_1 <= 1
F_AntiLeak_1_0_4_1_3: E_0_3_4 - E_1_3_4 + y_F_0_4_1 <= 1
F_AntiLeak_1_0_4_1_5: E_0_4_5 - E_1_4_5 + y_F_0_4_1 <= 1
F_AntiLeak_1_0_4_2_0: E_0_0_4 - E_1_0_4 + y_F_0_4_2 <= 1
F_AntiLeak_1_0_4_2_1: E_0_1_4 - E_1_1_4 + y_F_0_4_2 <= 1
F_AntiLeak_1_0_4_2_3: E_0_3_4 - E_1_3_4 + y_F_0_4_2 <= 1
F_AntiLeak_1_0_4_2_5: E_0_4_5 - E_1_4_5 + y_F_0_4_2 <= 1
F_AntiLeak_1_0_4_3_0: E_0_0_4 - E_1_0_4 + y_F_0_4_3 <= 1
F_AntiLeak_1_0_4_3_1: E_0_1_4 - E_1_1_4 + y_F_0_4_3 <= 1
F_AntiLeak_1_0_4_3_2: E_0_2_4 - E_1_2_4 + y_F_0_4_3 <= 1
F_AntiLeak_1_0_4_3_5: E_0_4_5 - E_1_4_5 + y_F_0_4_3 <= 1
F_AntiLeak_1_0_4_5_0: E_0_0_4 - E_1_0_4 + y_F_0_4_5 <= 1
F_AntiLeak_1_0_4_5_1: E_0_1_4 - E_1_1_4 + y_F_0_4_5 <= 1
F_AntiLeak_1_0_4_5_2: E_0_2_4 - E_1_2_4 + y_F_0_4_5 <= 1
F_AntiLeak_1_0_4_5_3: E_0_3_4 - E_1_3_4 + y_F_0_4_5 <= 1
F_AntiLeak_1_0_5_0_1: E_0_1_5 - E_1_1_5 + y_F_0_5_0 <= 1
F_AntiLeak_1_0_5_0_2: E_0_2_5 - E_1_2_5 + y_F_0_5_0 <= 1
F_AntiLeak_1_0_5_0_3: E_0_3_5 - E_1_3_5 + y_F_0_5_0 <= 1
F_AntiLeak_1_0_5_0_4: E_0_4_5 - E_1_4_5 + y_F_0_5_0 <= 1
F_AntiLeak_1_0_5_1_0: E_0_0_5 - E_1_0_5 + y_F_0_5_1 <= 1
F_AntiLeak_1_0_5_1_2: E_0_2_5 - E_1_2_5 + y_F_0_5_1 <= 1
F_AntiLeak_1_0_5_1_3: E_0_3_5 - E_1_3_5 + y_F_0_5_1 <= 1
F_AntiLeak_1_0_5_1_4: E_0_4_5 - E_1_4_5 + y_F_0_5_1 <= 1
F_AntiLeak_1_0_5_2_0: E_0_0_5 - E_1_0_5 + y_F_0_5_2 <= 1
F_AntiLeak_1_0_5_2_1: E_0_1_5 - E_1_1_5 + y_F_0_5_2 <= 1
F_AntiLeak_1_0_5_2_3: E_0_3_5 - E_1_3_5 + y_F_0_5_2 <= 1
F_AntiLeak_1_0_5_2_4: E_0_4_5 - E_1_4_5 + y_F_0_5_2 <= 1
F_AntiLeak_1_0_5_3_0: E_0_0_5 - E_1_0_5 + y_F_0_5_3 <= 1
F_AntiLeak_1_0_5_3_1: E_0_1_5 - E_1_1_5 + y_F_0_5_3 <= 1
F_AntiLeak_1_0_5_3_2: E_0_2_5 - E_1_2_5 + y_F_0_5_3 <= 1
F_AntiLeak_1_0_5_3_4: E_0_4_5 - E_1_4_5 + y_F_0_5_3 <= 1
F_AntiLeak_1_0_5_4_0: E_0_0_5 - E_1_0_5 + y_F_0_5_4 <= 1
F_AntiLeak_1_0_5_4_1: E_0_1_5 - E_1_1_5 + y_F_0_5_4 <= 1
F_AntiLeak_1_0_5_4_2: E_0_2_5 - E_1_2_5 + y_F_0_5_4 <= 1
F_AntiLeak_1_0_5_4_3: E_0_3_5 - E_1_3_5 + y_F_0_5_4 <= 1
F_AntiLeak_1_1_0_1_2: E_1_0_2 - E_2_0_2 + y_F_1_0_1 <= 1
F_AntiLeak_1_1_0_1_3: E_1_0_3 - E_2_0_3 + y_F_1_0_1 <= 1
F_AntiLeak_1_1_0_1_4: E_1_0_4 - E_2_0_4 + y_F_1_0_1 <= 1
F_AntiLeak_1_1_0_1_5: E_1_0_5 - E_2_0_5 + y_F_1_0_1 <= 1
F_AntiLeak_1_1_0_2_1: E_1_0_1 - E_2_0_1 + y_F_1_0_2 <= 1
F_AntiLeak_1_1_0_2_3: E_1_0_3 - E_2_0_3 + y_F_1_0_2 <= 1
F_AntiLeak_1_1_0_2_4: E_1_0_4 - E_2_0_4 + y_F_1_0_2 <= 1
F_AntiLeak_1_1_0_2_5: E_1_0_5 - E_2_0_5 + y_F_1_0_2 <= 1
F_AntiLeak_1_1_0_3_1: E_1_0_1 - E_2_0_1 + y_F_1_0_3 <= 1
F_AntiLeak_1_1_0_3_2: E_1_0_2 - E_2_0_2 + y_F_1_0_3 <= 1
F_AntiLeak_1_1_0_3_4: E_1_0_4 - E_2_0_4 + y_F_1_0_3 <= 1
F_AntiLeak_1_1_0_3_5: E_1_0_5 - E_2_0_5 + y_F_1_0_3 <= 1
F_AntiLeak_1_1_0_4_1: E_1_0_1 - E_2_0_1 + y_F_1_0_4 <= 1
F_AntiLeak_1_1_0_4_2: E_1_0_2 - E_2_0_2 + y_F_1_0_4 <= 1
F_AntiLeak_1_1_0_4_3: E_1_0_3 - E_2_0_3 + y_F_1_0_4 <= 1
F_AntiLeak_1_1_0_4_5: E_1_0_5 - E_2_0_5 + y_F_1_0_4 <= 1
F_AntiLeak_1_1_0_5_1: E_1_0_1 - E_2_0_1 + y_F_1_0_5 <= 1
F_AntiLeak_1_1_0_5_2: E_1_0_2 - E_2_0_2 + y_F_1_0_5 <= 1
F_AntiLeak_1_1_0_5_3: E_1_0_3 - E_2_0_3 + y_F_1_0_5 <= 1
F_AntiLeak_1_1_0_5_4: E_1_0_4 - E_2_0_4 + y_F_1_0_5 <= 1
F_AntiLeak_1_1_1_0_2: E_1_1_2 - E_2_1_2 + y_F_1_1_0 <= 1
F_AntiLeak_1_1_1_0_3: E_1_1_3 - E_2_1_3 + y_F_1_1_0 <= 1
F_AntiLeak_1_1_1_0_4: E_1_1_4 - E_2_1_4 + y_F_1_1_0 <= 1
F_AntiLeak_1_1_1_0_5: E_1_1_5 - E_2_1_5 + y_F_1_1_0 <= 1
F_AntiLeak_1_1_1_2_0: E_1_0_1 - E_2_0_1 + y_F_1_1_2 <= 1
F_AntiLeak_1_1_1_2_3: E_1_1_3 - E_2_1_3 + y_F_1_1_2 <= 1
F_AntiLeak_1_1_1_2_4: E_1_1_4 - E_2_1_4 + y_F_1_1_2 <= 1
F_AntiLeak_1_1_1_2_5: E_1_1_5 - E_2_1_5 + y_F_1_1_2 <= 1
F_AntiLeak_1_1_1_3_0: E_1_0_1 - E_2_0_1 + y_F_1_1_3 <= 1
F_AntiLeak_1_1_1_3_2: E_1_1_2 - E_2_1_2 + y_F_1_1_3 <= 1
F_AntiLeak_1_1_1_3_4: E_1_1_4 - E_2_1_4 + y_F_1_1_3 <= 1
F_AntiLeak_1_1_1_3_5: E_1_1_5 - E_2_1_5 + y_F_1_1_3 <= 1
F_AntiLeak_1_1_1_4_0: E_1_0_1 - E_2_0_1 + y_F_1_1_4 <= 1
F_AntiLeak_1_1_1_4_2: E_1_1_2 - E_2_1_2 + y_F_1_1_4 <= 1
F_AntiLeak_1_1_1_4_3: E_1_1_3 - E_2_1_3 + y_F_1_1_4 <= 1
F_AntiLeak_1_1_1_4_5: E_1_1_5 - E_2_1_5 + y_F_1_1_4 <= 1
F_AntiLeak_1_1_1_5_0: E_1_0_1 - E_2_0_1 + y_F_1_1_5 <= 1
F_AntiLeak_1_1_1_5_2: E_1_1_2 - E_2_1_2 + y_F_1_1_5 <= 1
F_AntiLeak_1_1_1_5_3: E_1_1_3 - E_2_1_3 + y_F_1_1_5 <= 1
F_AntiLeak_1_1_1_5_4: E_1_1_4 - E_2_1_4 + y_F_1_1_5 <= 1
F_AntiLeak_1_1_2_0_1: E_1_1_2 - E_2_1_2 + y_F_1_2_0 <= 1
F_AntiLeak_1_1_2_0_3: E_1_2_3 - E_2_2_3 + y_F_1_2_0 <= 1
F_AntiLeak_1_1_2_0_4: E_1_2_4 - E_2_2_4 + y_F_1_2_0 <= 1
F_AntiLeak_1_1_2_0_5: E_1_2_5 - E_2_2_5 + y_F_1_2_0 <= 1
F_AntiLeak_1_1_2_1_0: E_1_0_2 - E_2_0_2 + y_F_1_2_1 <= 1
F_AntiLeak_1_1_2_1_3: E_1_2_3 - E_2_2_3 + y_F_1_2_1 <= 1
F_AntiLeak_1_1_2_1_4: E_1_2_4 - E_2_2_4 + y_F_1_2_1 <= 1
F_AntiLeak_1_1_2_1_5: E_1_2_5 - E_2_2_5 + y_F_1_2_1 <= 1
F_AntiLeak_1_1_2_3_0: E_1_0_2 - E_2_0_2 + y_F_1_2_3 <= 1
F_AntiLeak_1_1_2_3_1: E_1_1_2 - E_2_1_2 + y_F_1_2_3 <= 1
F_AntiLeak_1_1_2_3_4: E_1_2_4 - E_2_2_4 + y_F_1_2_3 <= 1
F_AntiLeak_1_1_2_3_5: E_1_2_5 - E_2_2_5 + y_F_1_2_3 <= 1
F_AntiLeak_1_1_2_4_0: E_1_0_2 - E_2_0_2 + y_F_1_2_4 <= 1
F_AntiLeak_1_1_2_4_1: E_1_1_2 - E_2_1_2 + y_F_1_2_4 <= 1
F_AntiLeak_1_1_2_4_3: E_1_2_3 - E_2_2_3 + y_F_1_2_4 <= 1
F_AntiLeak_1_1_2_4_5: E_1_2_5 - E_2_2_5 + y_F_1_2_4 <= 1
F_AntiLeak_1_1_2_5_0: E_1_0_2 - E_2_0_2 + y_F_1_2_5 <= 1
F_AntiLeak_1_1_2_5_1: E_1_1_2 - E_2_1_2 + y_F_1_2_5 <= 1
F_AntiLeak_1_1_2_5_3: E_1_2_3 - E_2_2_3 + y_F_1_2_5 <= 1
F_AntiLeak_1_1_2_5_4: E_1_2_4 - E_2_2_4 + y_F_1_2_5 <= 1
F_AntiLeak_1_1_3_0_1: E_1_1_3 - E_2_1_3 + y_F_1_3_0 <= 1
F_AntiLeak_1_1_3_0_2: E_1_2_3 - E_2_2_3 + y_F_1_3_0 <= 1
F_AntiLeak_1_1_3_0_4: E_1_3_4 - E_2_3_4 + y_F_1_3_0 <= 1
F_AntiLeak_1_1_3_0_5: E_1_3_5 - E_2_3_5 + y_F_1_3_0 <= 1
F_AntiLeak_1_1_3_1_0: E_1_0_3 - E_2_0_3 + y_F_1_3_1 <= 1
F_AntiLeak_1_1_3_1_2: E_1_2_3 - E_2_2_3 + y_F_1_3_1 <= 1
F_AntiLeak_1_1_3_1_4: E_1_3_4 - E_2_3_4 + y_F_1_3_1 <= 1
F_AntiLeak_1_1_3_1_5: E_1_3_5 - E_2_3_5 + y_F_1_3_1 <= 1
F_AntiLeak_1_1_3_2_0: E_1_0_3 - E_2_0_3 + y_F_1_3_2 <= 1
F_AntiLeak_1_1_3_2_1: E_1_1_3 - E_2_1_3 + y_F_1_3_2 <= 1
F_AntiLeak_1_1_3_2_4: E_1_3_4 - E_2_3_4 + y_F_1_3_2 <= 1
F_AntiLeak_1_1_3_2_5: E_1_3_5 - E_2_3_5 + y_F_1_3_2 <= 1
F_AntiLeak_1_1_3_4_0: E_1_0_3 - E_2_0_3 + y_F_1_3_4 <= 1
F_AntiLeak_1_1_3_4_1: E_1_1_3 - E_2_1_3 + y_F_1_3_4 <= 1
F_AntiLeak_1_1_3_4_2: E_1_2_3 - E_2_2_3 + y_F_1_3_4 <= 1
F_AntiLeak_1_1_3_4_5: E_1_3_5 - E_2_3_5 + y_F_1_3_4 <= 1
F_AntiLeak_1_1_3_5_0: E_1_0_3 - E_2_0_3 + y_F_1_3_5 <= 1
F_AntiLeak_1_1_3_5_1: E_1_1_3 - E_2_1_3 + y_F_1_3_5 <= 1
F_AntiLeak_1_1_3_5_2: E_1_2_3 - E_2_2_3 + y_F_1_3_5 <= 1
F_AntiLeak_1_1_3_5_4: E_1_3_4 - E_2_3_4 + y_F_1_3_5 <= 1
F_AntiLeak_1_1_4_0_1: E_1_1_4 - E_2_1_4 + y_F_1_4_0 <= 1
F_AntiLeak_1_1_4_0_2: E_1_2_4 - E_2_2_4 + y_F_1_4_0 <= 1
F_AntiLeak_1_1_4_0_3: E_1_3_4 - E_2_3_4 + y_F_1_4_0 <= 1
F_AntiLeak_1_1_4_0_5: E_1_4_5 - E_2_4_5 + y_F_1_4_0 <= 1
F_AntiLeak_1_1_4_1_0: E_1_0_4 - E_2_0_4 + y_F_1_4_1 <= 1
F_AntiLeak_1_1_4_1_2: E_1_2_4 - E_2_2_4 + y_F_1_4_1 <= 1
F_AntiLeak_1_1_4_1_3: E_1_3_4 - E_2_3_4 + y_F_1_4_1 <= 1
F_AntiLeak_1_1_4_1_5: E_1_4_5 - E_2_4_5 + y_F_1_4_1 <= 1
F_AntiLeak_1_1_4_2_0: E_1_0_4 - E_2_0_4 + y_F_1_4_2 <= 1
F_AntiLeak_1_1_4_2_1: E_1_1_4 - E_2_1_4 + y_F_1_4_2 <= 1
F_AntiLeak_1_1_4_2_3: E_1_3_4 - E_2_3_4 + y_F_1_4_2 <= 1
F_AntiLeak_1_1_4_2_5: E_1_4_5 - E_2_4_5 + y_F_1_4_2 <= 1
F_AntiLeak_1_1_4_3_0: E_1_0_4 - E_2_0_4 + y_F_1_4_3 <= 1
F_AntiLeak_1_1_4_3_1: E_1_1_4 - E_2_1_4 + y_F_1_4_3 <= 1
F_AntiLeak_1_1_4_3_2: E_1_2_4 - E_2_2_4 + y_F_1_4_3 <= 1
F_AntiLeak_1_1_4_3_5: E_1_4_5 - E_2_4_5 + y_F_1_4_3 <= 1
F_AntiLeak_1_1_4_5_0: E_1_0_4 - E_2_0_4 + y_F_1_4_5 <= 1
F_AntiLeak_1_1_4_5_1: E_1_1_4 - E_2_1_4 + y_F_1_4_5 <= 1
F_AntiLeak_1_1_4_5_2: E_1_2_4 - E_2_2_4 + y_F_1_4_5 <= 1
F_AntiLeak_1_1_4_5_3: E_1_3_4 - E_2_3_4 + y_F_1_4_5 <= 1
F_AntiLeak_1_1_5_0_1: E_1_1_5 - E_2_1_5 + y_F_1_5_0 <= 1
F_AntiLeak_1_1_5_0_2: E_1_2_5 - E_2_2_5 + y_F_1_5_0 <= 1
F_AntiLeak_1_1_5_0_3: E_1_3_5 - E_2_3_5 + y_F_1_5_0 <= 1
F_AntiLeak_1_1_5_0_4: E_1_4_5 - E_2_4_5 + y_F_1_5_0 <= 1
F_AntiLeak_1_1_5_1_0: E_1_0_5 - E_2_0_5 + y_F_1_5_1 <= 1
F_AntiLeak_1_1_5_1_2: E_1_2_5 - E_2_2_5 + y_F_1_5_1 <= 1
F_AntiLeak_1_1_5_1_3: E_1_3_5 - E_2_3_5 + y_F_1_5_1 <= 1
F_AntiLeak_1_1_5_1_4: E_1_4_5 - E_2_4_5 + y_F_1_5_1 <= 1
F_AntiLeak_1_1_5_2_0: E_1_0_5 - E_2_0_5 + y_F_1_5_2 <= 1
F_AntiLeak_1_1_5_2_1: E_1_1_5 - E_2_1_5 + y_F_1_5_2 <= 1
F_AntiLeak_1_1_5_2_3: E_1_3_5 - E_2_3_5 + y_F_1_5_2 <= 1
F_AntiLeak_1_1_5_2_4: E_1_4_5 - E_2_4_5 + y_F_1_5_2 <= 1
F_AntiLeak_1_1_5_3_0: E_1_0_5 - E_2_0_5 + y_F_1_5_3 <= 1
F_AntiLeak_1_1_5_3_1: E_1_1_5 - E_2_1_5 + y_F_1_5_3 <= 1
F_AntiLeak_1_1_5_3_2: E_1_2_5 - E_2_2_5 + y_F_1_5_3 <= 1
F_AntiLeak_1_1_5_3_4: E_1_4_5 - E_2_4_5 + y_F_1_5_3 <= 1
F_AntiLeak_1_1_5_4_0: E_1_0_5 - E_2_0_5 + y_F_1_5_4 <= 1
F_AntiLeak_1_1_5_4_1: E_1_1_5 - E_2_1_5 + y_F_1_5_4 <= 1
F_AntiLeak_1_1_5_4_2: E_1_2_5 - E_2_2_5 + y_F_1_5_4 <= 1
F_AntiLeak_1_1_5_4_3: E_1_3_5 - E_2_3_5 + y_F_1_5_4 <= 1
F_AntiLeak_1_2_0_1_2: E_2_0_2 - E_3_0_2 + y_F_2_0_1 <= 1
F_AntiLeak_1_2_0_1_3: E_2_0_3 - E_3_0_3 + y_F_2_0_1 <= 1
F_AntiLeak_1_2_0_1_4: E_2_0_4 - E_3_0_4 + y_F_2_0_1 <= 1
F_AntiLeak_1_2_0_1_5: E_2_0_5 - E_3_0_5 + y_F_2_0_1 <= 1
F_AntiLeak_1_2_0_2_1: E_2_0_1 - E_3_0_1 + y_F_2_0_2 <= 1
F_AntiLeak_1_2_0_2_3: E_2_0_3 - E_3_0_3 + y_F_2_0_2 <= 1
F_AntiLeak_1_2_0_2_4: E_2_0_4 - E_3_0_4 + y_F_2_0_2 <= 1
F_AntiLeak_1_2_0_2_5: E_2_0_5 - E_3_0_5 + y_F_2_0_2 <= 1
F_AntiLeak_1_2_0_3_1: E_2_0_1 - E_3_0_1 + y_F_2_0_3 <= 1
F_AntiLeak_1_2_0_3_2: E_2_0_2 - E_3_0_2 + y_F_2_0_3 <= 1
F_AntiLeak_1_2_0_3_4: E_2_0_4 - E_3_0_4 + y_F_2_0_3 <= 1
F_AntiLeak_1_2_0_3_5: E_2_0_5 - E_3_0_5 + y_F_2_0_3 <= 1
F_AntiLeak_1_2_0_4_1: E_2_0_1 - E_3_0_1 + y_F_2_0_4 <= 1
F_AntiLeak_1_2_0_4_2: E_2_0_2 - E_3_0_2 + y_F_2_0_4 <= 1
F_AntiLeak_1_2_0_4_3: E_2_0_3 - E_3_0_3 + y_F_2_0_4 <= 1
F_AntiLeak_1_2_0_4_5: E_2_0_5 - E_3_0_5 + y_F_2_0_4 <= 1
F_AntiLeak_1_2_0_5_1: E_2_0_1 - E_3_0_1 + y_F_2_0_5 <= 1
F_AntiLeak_1_2_0_5_2: E_2_0_2 - E_3_0_2 + y_F_2_0_5 <= 1
F_AntiLeak_1_2_0_5_3: E_2_0_3 - E_3_0_3 + y_F_2_0_5 <= 1
F_AntiLeak_1_2_0_5_4: E_2_0_4 - E_3_0_4 + y_F_2_0_5 <= 1
F_AntiLeak_1_2_1_0_2: E_2_1_2 - E_3_1_2 + y_F_2_1_0 <= 1
F_AntiLeak_1_2_1_0_3: E_2_1_3 - E_3_1_3 + y_F_2_1_0 <= 1
F_AntiLeak_1_2_1_0_4: E_2_1_4 - E_3_1_4 + y_F_2_1_0 <= 1
F_AntiLeak_1_2_1_0_5: E_2_1_5 - E_3_1_5 + y_F_2_1_0 <= 1
F_AntiLeak_1_2_1_2_0: E_2_0_1 - E_3_0_1 + y_F_2_1_2 <= 1
F_AntiLeak_1_2_1_2_3: E_2_1_3 - E_3_1_3 + y_F_2_1_2 <= 1
F_AntiLeak_1_2_1_2_4: E_2_1_4 - E_3_1_4 + y_F_2_1_2 <= 1
F_AntiLeak_1_2_1_2_5: E_2_1_5 - E_3_1_5 + y_F_2_1_2 <= 1
F_AntiLeak_1_2_1_3_0: E_2_0_1 - E_3_0_1 + y_F_2_1_3 <= 1
F_AntiLeak_1_2_1_3_2: E_2_1_2 - E_3_1_2 + y_F_2_1_3 <= 1
F_AntiLeak_1_2_1_3_4: E_2_1_4 - E_3_1_4 + y_F_2_1_3 <= 1
F_AntiLeak_1_2_1_3_5: E_2_1_5 - E_3_1_5 + y_F_2_1_3 <= 1
F_AntiLeak_1_2_1_4_0: E_2_0_1 - E_3_0_1 + y_F_2_1_4 <= 1
F_AntiLeak_1_2_1_4_2: E_2_1_2 - E_3_1_2 + y_F_2_1_4 <= 1
F_AntiLeak_1_2_1_4_3: E_2_1_3 - E_3_1_3 + y_F_2_1_4 <= 1
F_AntiLeak_1_2_1_4_5: E_2_1_5 - E_3_1_5 + y_F_2_1_4 <= 1
F_AntiLeak_1_2_1_5_0: E_2_0_1 - E_3_0_1 + y_F_2_1_5 <= 1
F_AntiLeak_1_2_1_5_2: E_2_1_2 - E_3_1_2 + y_F_2_1_5 <= 1
F_AntiLeak_1_2_1_5_3: E_2_1_3 - E_3_1_3 + y_F_2_1_5 <= 1
F_AntiLeak_1_2_1_5_4: E_2_1_4 - E_3_1_4 + y_F_2_1_5 <= 1
F_AntiLeak_1_2_2_0_1: E_2_1_2 - E_3_1_2 + y_F_2_2_0 <= 1
F_AntiLeak_1_2_2_0_3: E_2_2_3 - E_3_2_3 + y_F_2_2_0 <= 1
F_AntiLeak_1_2_2_0_4: E_2_2_4 - E_3_2_4 + y_F_2_2_0 <= 1
F_AntiLeak_1_2_2_0_5: E_2_2_5 - E_3_2_5 + y_F_2_2_0 <= 1
F_AntiLeak_1_2_2_1_0: E_2_0_2 - E_3_0_2 + y_F_2_2_1 <= 1
F_AntiLeak_1_2_2_1_3: E_2_2_3 - E_3_2_3 + y_F_2_2_1 <= 1
F_AntiLeak_1_2_2_1_4: E_2_2_4 - E_3_2_4 + y_F_2_2_1 <= 1
F_AntiLeak_1_2_2_1_5: E_2_2_5 - E_3_2_5 + y_F_2_2_1 <= 1
F_AntiLeak_1_2_2_3_0: E_2_0_2 - E_3_0_2 + y_F_2_2_3 <= 1
F_AntiLeak_1_2_2_3_1: E_2_1_2 - E_3_1_2 + y_F_2_2_3 <= 1
F_AntiLeak_1_2_2_3_4: E_2_2_4 - E_3_2_4 + y_F_2_2_3 <= 1
F_AntiLeak_1_2_2_3_5: E_2_2_5 - E_3_2_5 + y_F_2_2_3 <= 1
F_AntiLeak_1_2_2_4_0: E_2_0_2 - E_3_0_2 + y_F_2_2_4 <= 1
F_AntiLeak_1_2_2_4_1: E_2_1_2 - E_3_1_2 + y_F_2_2_4 <= 1
F_AntiLeak_1_2_2_4_3: E_2_2_3 - E_3_2_3 + y_F_2_2_4 <= 1
F_AntiLeak_1_2_2_4_5: E_2_2_5 - E_3_2_5 + y_F_2_2_4 <= 1
F_AntiLeak_1_2_2_5_0: E_2_0_2 - E_3_0_2 + y_F_2_2_5 <= 1
F_AntiLeak_1_2_2_5_1: E_2_1_2 - E_3_1_2 + y_F_2_2_5 <= 1
F_AntiLeak_1_2_2_5_3: E_2_2_3 - E_3_2_3 + y_F_2_2_5 <= 1
F_AntiLeak_1_2_2_5_4: E_2_2_4 - E_3_2_4 + y_F_2_2_5 <= 1
F_AntiLeak_1_2_3_0_1: E_2_1_3 - E_3_1_3 + y_F_2_3_0 <= 1
F_AntiLeak_1_2_3_0_2: E_2_2_3 - E_3_2_3 + y_F_2_3_0 <= 1
F_AntiLeak_1_2_3_0_4: E_2_3_4 - E_3_3_4 + y_F_2_3_0 <= 1
F_AntiLeak_1_2_3_0_5: E_2_3_5 - E_3_3_5 + y_F_2_3_0 <= 1
F_AntiLeak_1_2_3_1_0: E_2_0_3 - E_3_0_3 + y_F_2_3_1 <= 1
F_AntiLeak_1_2_3_1_2: E_2_2_3 - E_3_2_3 + y_F_2_3_1 <= 1
F_AntiLeak_1_2_3_1_4: E_2_3_4 - E_3_3_4 + y_F_2_3_1 <= 1
F_AntiLeak_1_2_3_1_5: E_2_3_5 - E_3_3_5 + y_F_2_3_1 <= 1
F_AntiLeak_1_2_3_2_0: E_2_0_3 - E_3_0_3 + y_F_2_3_2 <= 1
F_AntiLeak_1_2_3_2_1: E_2_1_3 - E_3_1_3 + y_F_2_3_2 <= 1
F_AntiLeak_1_2_3_2_4: E_2_3_4 - E_3_3_4 + y_F_2_3_2 <= 1
F_AntiLeak_1_2_3_2_5: E_2_3_5 - E_3_3_5 + y_F_2_3_2 <= 1
F_AntiLeak_1_2_3_4_0: E_2_0_3 - E_3_0_3 + y_F_2_3_4 <= 1
F_AntiLeak_1_2_3_4_1: E_2_1_3 - E_3_1_3 + y_F_2_3_4 <= 1
F_AntiLeak_1_2_3_4_2: E_2_2_3 - E_3_2_3 + y_F_2_3_4 <= 1
F_AntiLeak_1_2_3_4_5: E_2_3_5 - E_3_3_5 + y_F_2_3_4 <= 1
F_AntiLeak_1_2_3_5_0: E_2_0_3 - E_3_0_3 + y_F_2_3_5 <= 1
F_AntiLeak_1_2_3_5_1: E_2_1_3 - E_3_1_3 + y_F_2_3_5 <= 1
F_AntiLeak_1_2_3_5_2: E_2_2_3 - E_3_2_3 + y_F_2_3_5 <= 1
F_AntiLeak_1_2_3_5_4: E_2_3_4 - E_3_3_4 + y_F_2_3_5 <= 1
F_AntiLeak_1_2_4_0_1: E_2_1_4 - E_3_1_4 + y_F_2_4_0 <= 1
F_AntiLeak_1_2_4_0_2: E_2_2_4 - E_3_2_4 + y_F_2_4_0 <= 1
F_AntiLeak_1_2_4_0_3: E_2_3_4 - E_3_3_4 + y_F_2_4_0 <= 1
F_AntiLeak_1_2_4_0_5: E_2_4_5 - E_3_4_5 + y_F_2_4_0 <= 1
F_AntiLeak_1_2_4_1_0: E_2_0_4 - E_3_0_4 + y_F_2_4_1 <= 1
F_AntiLeak_1_2_4_1_2: E_2_2_4 - E_3_2_4 + y_F_2_4_1 <= 1
F_AntiLeak_1_2_4_1_3: E_2_3_4 - E_3_3_4 + y_F_2_4_1 <= 1
F_AntiLeak_1_2_4_1_5: E_2_4_5 - E_3_4_5 + y_F_2_4_1 <= 1
F_AntiLeak_1_2_4_2_0: E_2_0_4 - E_3_0_4 + y_F_2_4_2 <= 1
F_AntiLeak_1_2_4_2_1: E_2_1_4 - E_3_1_4 + y_F_2_4_2 <= 1
F_AntiLeak_1_2_4_2_3: E_2_3_4 - E_3_3_4 + y_F_2_4_2 <= 1
F_AntiLeak_1_2_4_2_5: E_2_4_5 - E_3_4_5 + y_F_2_4_2 <= 1
F_AntiLeak_1_2_4_3_0: E_2_0_4 - E_3_0_4 + y_F_2_4_3 <= 1
F_AntiLeak_1_2_4_3_1: E_2_1_4 - E_3_1_4 + y_F_2_4_3 <= 1
F_AntiLeak_1_2_4_3_2: E_2_2_4 - E_3_2_4 + y_F_2_4_3 <= 1
F_AntiLeak_1_2_4_3_5: E_2_4_5 - E_3_4_5 + y_F_2_4_3 <= 1
F_AntiLeak_1_2_4_5_0: E_2_0_4 - E_3_0_4 + y_F_2_4_5 <= 1
F_AntiLeak_1_2_4_5_1: E_2_1_4 - E_3_1_4 + y_F_2_4_5 <= 1
F_AntiLeak_1_2_4_5_2: E_2_2_4 - E_3_2_4 + y_F_2_4_5 <= 1
F_AntiLeak_1_2_4_5_3: E_2_3_4 - E_3_3_4 + y_F_2_4_5 <= 1
F_AntiLeak_1_2_5_0_1: E_2_1_5 - E_3_1_5 + y_F_2_5_0 <= 1
F_AntiLeak_1_2_5_0_2: E_2_2_5 - E_3_2_5 + y_F_2_5_0 <= 1
F_AntiLeak_1_2_5_0_3: E_2_3_5 - E_3_3_5 + y_F_2_5_0 <= 1
F_AntiLeak_1_2_5_0_4: E_2_4_5 - E_3_4_5 + y_F_2_5_0 <= 1
F_AntiLeak_1_2_5_1_0: E_2_0_5 - E_3_0_5 + y_F_2_5_1 <= 1
F_AntiLeak_1_2_5_1_2: E_2_2_5 - E_3_2_5 + y_F_2_5_1 <= 1
F_AntiLeak_1_2_5_1_3: E_2_3_5 - E_3_3_5 + y_F_2_5_1 <= 1
F_AntiLeak_1_2_5_1_4: E_2_4_5 - E_3_4_5 + y_F_2_5_1 <= 1
F_AntiLeak_1_2_5_2_0: E_2_0_5 - E_3_0_5 + y_F_2_5_2 <= 1
F_AntiLeak_1_2_5_2_1: E_2_1_5 - E_3_1_5 + y_F_2_5_2 <= 1
F_AntiLeak_1_2_5_2_3: E_2_3_5 - E_3_3_5 + y_F_2_5_2 <= 1
F_AntiLeak_1_2_5_2_4: E_2_4_5 - E_3_4_5 + y_F_2_5_2 <= 1
F_AntiLeak_1_2_5_3_0: E_2_0_5 - E_3_0_5 + y_F_2_5_3 <= 1
F_AntiLeak_1_2_5_3_1: E_2_1_5 - E_3_1_5 + y_F_2_5_3 <= 1
F_AntiLeak_1_2_5_3_2: E_2_2_5 - E_3_2_5 + y_F_2_5_3 <= 1
F_AntiLeak_1_2_5_3_4: E_2_4_5 - E_3_4_5 + y_F_2_5_3 <= 1
F_AntiLeak_1_2_5_4_0: E_2_0_5 - E_3_0_5 + y_F_2_5_4 <= 1
F_AntiLeak_1_2_5_4_1: E_2_1_5 - E_3_1_5 + y_F_2_5_4 <= 1
F_AntiLeak_1_2_5_4_2: E_2_2_5 - E_3_2_5 + y_F_2_5_4 <= 1
F_AntiLeak_1_2_5_4_3: E_2_3_5 - E_3_3_5 + y_F_2_5_4 <= 1
F_AntiLeak_1_3_0_1_2: E_3_0_2 - E_4_0_2 + y_F_3_0_1 <= 1
F_AntiLeak_1_3_0_1_3: E_3_0_3 - E_4_0_3 + y_F_3_0_1 <= 1
F_AntiLeak_1_3_0_1_4: E_3_0_4 - E_4_0_4 + y_F_3_0_1 <= 1
F_AntiLeak_1_3_0_1_5: E_3_0_5 - E_4_0_5 + y_F_3_0_1 <= 1
F_AntiLeak_1_3_0_2_1: E_3_0_1 - E_4_0_1 + y_F_3_0_2 <= 1
F_AntiLeak_1_3_0_2_3: E_3_0_3 - E_4_0_3 + y_F_3_0_2 <= 1
F_AntiLeak_1_3_0_2_4: E_3_0_4 - E_4_0_4 + y_F_3_0_2 <= 1
F_AntiLeak_1_3_0_2_5: E_3_0_5 - E_4_0_5 + y_F_3_0_2 <= 1
F_AntiLeak_1_3_0_3_1: E_3_0_1 - E_4_0_1 + y_F_3_0_3 <= 1
F_AntiLeak_1_3_0_3_2: E_3_0_2 - E_4_0_2 + y_F_3_0_3 <= 1
F_AntiLeak_1_3_0_3_4: E_3_0_4 - E_4_0_4 + y_F_3_0_3 <= 1
F_AntiLeak_1_3_0_3_5: E_3_0_5 - E_4_0_5 + y_F_3_0_3 <= 1
F_AntiLeak_1_3_0_4_1: E_3_0_1 - E_4_0_1 + y_F_3_0_4 <= 1
F_AntiLeak_1_3_0_4_2: E_3_0_2 - E_4_0_2 + y_F_3_0_4 <= 1
F_AntiLeak_1_3_0_4_3: E_3_0_3 - E_4_0_3 + y_F_3_0_4 <= 1
F_AntiLeak_1_3_0_4_5: E_3_0_5 - E_4_0_5 + y_F_3_0_4 <= 1
F_AntiLeak_1_3_0_5_1: E_3_0_1 - E_4_0_1 + y_F_3_0_5 <= 1
F_AntiLeak_1_3_0_5_2: E_3_0_2 - E_4_0_2 + y_F_3_0_5 <= 1
F_AntiLeak_1_3_0_5_3: E_3_0_3 - E_4_0_3 + y_F_3_0_5 <= 1
F_AntiLeak_1_3_0_5_4: E_3_0_4 - E_4_0_4 + y_F_3_0_5 <= 1
F_AntiLeak_1_3_1_0_2: E_3_1_2 - E_4_1_2 + y_F_3_1_0 <= 1
F_AntiLeak_1_3_1_0_3: E_3_1_3 - E_4_1_3 + y_F_3_1_0 <= 1
F_AntiLeak_1_3_1_0_4: E_3_1_4 - E_4_1_4 + y_F_3_1_0 <= 1
F_AntiLeak_1_3_1_0_5: E_3_1_5 - E_4_1_5 + y_F_3_1_0 <= 1
F_AntiLeak_1_3_1_2_0: E_3_0_1 - E_4_0_1 + y_F_3_1_2 <= 1
F_AntiLeak_1_3_1_2_3: E_3_1_3 - E_4_1_3 + y_F_3_1_2 <= 1
F_AntiLeak_1_3_1_2_4: E_3_1_4 - E_4_1_4 + y_F_3_1_2 <= 1
F_AntiLeak_1_3_1_2_5: E_3_1_5 - E_4_1_5 + y_F_3_1_2 <= 1
F_AntiLeak_1_3_1_3_0: E_3_0_1 - E_4_0_1 + y_F_3_1_3 <= 1
F_AntiLeak_1_3_1_3_2: E_3_1_2 - E_4_1_2 + y_F_3_1_3 <= 1
F_AntiLeak_1_3_1_3_4: E_3_1_4 - E_4_1_4 + y_F_3_1_3 <= 1
F_AntiLeak_1_3_1_3_5: E_3_1_5 - E_4_1_5 + y_F_3_1_3 <= 1
F_AntiLeak_1_3_1_4_0: E_3_0_1 - E_4_0_1 + y_F_3_1_4 <= 1
F_AntiLeak_1_3_1_4_2: E_3_1_2 - E_4_1_2 + y_F_3_1_4 <= 1
F_AntiLeak_1_3_1_4_3: E_3_1_3 - E_4_1_3 + y_F_3_1_4 <= 1
F_AntiLeak_1_3_1_4_5: E_3_1_5 - E_4_1_5 + y_F_3_1_4 <= 1
F_AntiLeak_1_3_1_5_0: E_3_0_1 - E_4_0_1 + y_F_3_1_5 <= 1
F_AntiLeak_1_3_1_5_2: E_3_1_2 - E_4_1_2 + y_F_3_1_5 <= 1
F_AntiLeak_1_3_1_5_3: E_3_1_3 - E_4_1_3 + y_F_3_1_5 <= 1
F_AntiLeak_1_3_1_5_4: E_3_1_4 - E_4_1_4 + y_F_3_1_5 <= 1
F_AntiLeak_1_3_2_0_1: E_3_1_2 - E_4_1_2 + y_F_3_2_0 <= 1
F_AntiLeak_1_3_2_0_3: E_3_2_3 - E_4_2_3 + y_F_3_2_0 <= 1
F_AntiLeak_1_3_2_0_4: E_3_2_4 - E_4_2_4 + y_F_3_2_0 <= 1
F_AntiLeak_1_3_2_0_5: E_3_2_5 - E_4_2_5 + y_F_3_2_0 <= 1
F_AntiLeak_1_3_2_1_0: E_3_0_2 - E_4_0_2 + y_F_3_2_1 <= 1
F_AntiLeak_1_3_2_1_3: E_3_2_3 - E_4_2_3 + y_F_3_2_1 <= 1
F_AntiLeak_1_3_2_1_4: E_3_2_4 - E_4_2_4 + y_F_3_2_1 <= 1
F_AntiLeak_1_3_2_1_5: E_3_2_5 - E_4_2_5 + y_F_3_2_1 <= 1
F_AntiLeak_1_3_2_3_0: E_3_0_2 - E_4_0_2 + y_F_3_2_3 <= 1
F_AntiLeak_1_3_2_3_1: E_3_1_2 - E_4_1_2 + y_F_3_2_3 <= 1
F_AntiLeak_1_3_2_3_4: E_3_2_4 - E_4_2_4 + y_F_3_2_3 <= 1
F_AntiLeak_1_3_2_3_5: E_3_2_5 - E_4_2_5 + y_F_3_2_3 <= 1
F_AntiLeak_1_3_2_4_0: E_3_0_2 - E_4_0_2 + y_F_3_2_4 <= 1
F_AntiLeak_1_3_2_4_1: E_3_1_2 - E_4_1_2 + y_F_3_2_4 <= 1
F_AntiLeak_1_3_2_4_3: E_3_2_3 - E_4_2_3 + y_F_3_2_4 <= 1
F_AntiLeak_1_3_2_4_5: E_3_2_5 - E_4_2_5 + y_F_3_2_4 <= 1
F_AntiLeak_1_3_2_5_0: E_3_0_2 - E_4_0_2 + y_F_3_2_5 <= 1
F_AntiLeak_1_3_2_5_1: E_3_1_2 - E_4_1_2 + y_F_3_2_5 <= 1
F_AntiLeak_1_3_2_5_3: E_3_2_3 - E_4_2_3 + y_F_3_2_5 <= 1
F_AntiLeak_1_3_2_5_4: E_3_2_4 - E_4_2_4 + y_F_3_2_5 <= 1
F_AntiLeak_1_3_3_0_1: E_3_1_3 - E_4_1_3 + y_F_3_3_0 <= 1
F_AntiLeak_1_3_3_0_2: E_3_2_3 - E_4_2_3 + y_F_3_3_0 <= 1
F_AntiLeak_1_3_3_0_4: E_3_3_4 - E_4_3_4 + y_F_3_3_0 <= 1
F_AntiLeak_1_3_3_0_5: E_3_3_5 - E_4_3_5 + y_F_3_3_0 <= 1
F_AntiLeak_1_3_3_1_0: E_3_0_3 - E_4_0_3 + y_F_3_3_1 <= 1
F_AntiLeak_1_3_3_1_2: E_3_2_3 - E_4_2_3 + y_F_3_3_1 <= 1
F_AntiLeak_1_3_3_1_4: E_3_3_4 - E_4_3_4 + y_F_3_3_1 <= 1
F_AntiLeak_1_3_3_1_5: E_3_3_5 - E_4_3_5 + y_F_3_3_1 <= 1
F_AntiLeak_1_3_3_2_0: E_3_0_3 - E_4_0_3 + y_F_3_3_2 <= 1
F_AntiLeak_1_3_3_2_1: E_3_1_3 - E_4_1_3 + y_F_3_3_2 <= 1
F_AntiLeak_1_3_3_2_4: E_3_3_4 - E_4_3_4 + y_F_3_3_2 <= 1
F_AntiLeak_1_3_3_2_5: E_3_3_5 - E_4_3_5 + y_F_3_3_2 <= 1
F_AntiLeak_1_3_3_4_0: E_3_0_3 - E_4_0_3 + y_F_3_3_4 <= 1
F_AntiLeak_1_3_3_4_1: E_3_1_3 - E_4_1_3 + y_F_3_3_4 <= 1
F_AntiLeak_1_3_3_4_2: E_3_2_3 - E_4_2_3 + y_F_3_3_4 <= 1
F_AntiLeak_1_3_3_4_5: E_3_3_5 - E_4_3_5 + y_F_3_3_4 <= 1
F_AntiLeak_1_3_3_5_0: E_3_0_3 - E_4_0_3 + y_F_3_3_5 <= 1
F_AntiLeak_1_3_3_5_1: E_3_1_3 - E_4_1_3 + y_F_3_3_5 <= 1
F_AntiLeak_1_3_3_5_2: E_3_2_3 - E_4_2_3 + y_F_3_3_5 <= 1
F_AntiLeak_1_3_3_5_4: E_3_3_4 - E_4_3_4 + y_F_3_3_5 <= 1
F_AntiLeak_1_3_4_0_1: E_3_1_4 - E_4_1_4 + y_F_3_4_0 <= 1
F_AntiLeak_1_3_4_0_2: E_3_2_4 - E_4_2_4 + y_F_3_4_0 <= 1
F_AntiLeak_1_3_4_0_3: E_3_3_4 - E_4_3_4 + y_F_3_4_0 <= 1
F_AntiLeak_1_3_4_0_5: E_3_4_5 - E_4_4_5 + y_F_3_4_0 <= 1
F_AntiLeak_1_3_4_1_0: E_3_0_4 - E_4_0_4 + y_F_3_4_1 <= 1
F_AntiLeak_1_3_4_1_2: E_3_2_4 - E_4_2_4 + y_F_3_4_1 <= 1
F_AntiLeak_1_3_4_1_3: E_3_3_4 - E_4_3_4 + y_F_3_4_1 <= 1
F_AntiLeak_1_3_4_1_5: E_3_4_5 - E_4_4_5 + y_F_3_4_1 <= 1
F_AntiLeak_1_3_4_2_0: E_3_0_4 - E_4_0_4 + y_F_3_4_2 <= 1
F_AntiLeak_1_3_4_2_1: E_3_1_4 - E_4_1_4 + y_F_3_4_2 <= 1
F_AntiLeak_1_3_4_2_3: E_3_3_4 - E_4_3_4 + y_F_3_4_2 <= 1
F_AntiLeak_1_3_4_2_5: E_3_4_5 - E_4_4_5 + y_F_3_4_2 <= 1
F_AntiLeak_1_3_4_3_0: E_3_0_4 - E_4_0_4 + y_F_3_4_3 <= 1
F_AntiLeak_1_3_4_3_1: E_3_1_4 - E_4_1_4 + y_F_3_4_3 <= 1
F_AntiLeak_1_3_4_3_2: E_3_2_4 - E_4_2_4 + y_F_3_4_3 <= 1
F_AntiLeak_1_3_4_3_5: E_3_4_5 - E_4_4_5 + y_F_3_4_3 <= 1
F_AntiLeak_1_3_4_5_0: E_3_0_4 - E_4_0_4 + y_F_3_4_5 <= 1
F_AntiLeak_1_3_4_5_1: E_3_1_4 - E_4_1_4 + y_F_3_4_5 <= 1
F_AntiLeak_1_3_4_5_2: E_3_2_4 - E_4_2_4 + y_F_3_4_5 <= 1
F_AntiLeak_1_3_4_5_3: E_3_3_4 - E_4_3_4 + y_F_3_4_5 <= 1
F_AntiLeak_1_3_5_0_1: E_3_1_5 - E_4_1_5 + y_F_3_5_0 <= 1
F_AntiLeak_1_3_5_0_2: E_3_2_5 - E_4_2_5 + y_F_3_5_0 <= 1
F_AntiLeak_1_3_5_0_3: E_3_3_5 - E_4_3_5 + y_F_3_5_0 <= 1
F_AntiLeak_1_3_5_0_4: E_3_4_5 - E_4_4_5 + y_F_3_5_0 <= 1
F_AntiLeak_1_3_5_1_0: E_3_0_5 - E_4_0_5 + y_F_3_5_1 <= 1
F_AntiLeak_1_3_5_1_2: E_3_2_5 - E_4_2_5 + y_F_3_5_1 <= 1
F_AntiLeak_1_3_5_1_3: E_3_3_5 - E_4_3_5 + y_F_3_5_1 <= 1
F_AntiLeak_1_3_5_1_4: E_3_4_5 - E_4_4_5 + y_F_3_5_1 <= 1
F_AntiLeak_1_3_5_2_0: E_3_0_5 - E_4_0_5 + y_F_3_5_2 <= 1
F_AntiLeak_1_3_5_2_1: E_3_1_5 - E_4_1_5 + y_F_3_5_2 <= 1
F_AntiLeak_1_3_5_2_3: E_3_3_5 - E_4_3_5 + y_F_3_5_2 <= 1
F_AntiLeak_1_3_5_2_4: E_3_4_5 - E_4_4_5 + y_F_3_5_2 <= 1
F_AntiLeak_1_3_5_3_0: E_3_0_5 - E_4_0_5 + y_F_3_5_3 <= 1
F_AntiLeak_1_3_5_3_1: E_3_1_5 - E_4_1_5 + y_F_3_5_3 <= 1
F_AntiLeak_1_3_5_3_2: E_3_2_5 - E_4_2_5 + y_F_3_5_3 <= 1
F_AntiLeak_1_3_5_3_4: E_3_4_5 - E_4_4_5 + y_F_3_5_3 <= 1
F_AntiLeak_1_3_5_4_0: E_3_0_5 - E_4_0_5 + y_F_3_5_4 <= 1
F_AntiLeak_1_3_5_4_1: E_3_1_5 - E_4_1_5 + y_F_3_5_4 <= 1
F_AntiLeak_1_3_5_4_2: E_3_2_5 - E_4_2_5 + y_F_3_5_4 <= 1
F_AntiLeak_1_3_5_4_3: E_3_3_5 - E_4_3_5 + y_F_3_5_4 <= 1
F_AntiLeak_2_0_0_1_2: - E_0_1_2 + E_1_1_2 + y_F_0_0_1 <= 1
F_AntiLeak_2_0_0_1_3: - E_0_1_3 + E_1_1_3 + y_F_0_0_1 <= 1
F_AntiLeak_2_0_0_1_4: - E_0_1_4 + E_1_1_4 + y_F_0_0_1 <= 1
F_AntiLeak_2_0_0_1_5: - E_0_1_5 + E_1_1_5 + y_F_0_0_1 <= 1
F_AntiLeak_2_0_0_2_1: - E_0_1_2 + E_1_1_2 + y_F_0_0_2 <= 1
F_AntiLeak_2_0_0_2_3: - E_0_2_3 + E_1_2_3 + y_F_0_0_2 <= 1
F_AntiLeak_2_0_0_2_4: - E_0_2_4 + E_1_2_4 + y_F_0_0_2 <= 1
F_AntiLeak_2_0_0_2_5: - E_0_2_5 + E_1_2_5 + y_F_0_0_2 <= 1
F_AntiLeak_2_0_0_3_1: - E_0_1_3 + E_1_1_3 + y_F_0_0_3 <= 1
F_AntiLeak_2_0_0_3_2: - E_0_2_3 + E_1_2_3 + y_F_0_0_3 <= 1
F_AntiLeak_2_0_0_3_4: - E_0_3_4 + E_1_3_4 + y_F_0_0_3 <= 1
F_AntiLeak_2_0_0_3_5: - E_0_3_5 + E_1_3_5 + y_F_0_0_3 <= 1
F_AntiLeak_2_0_0_4_1: - E_0_1_4 + E_1_1_4 + y_F_0_0_4 <= 1
F_AntiLeak_2_0_0_4_2: - E_0_2_4 + E_1_2_4 + y_F_0_0_4 <= 1
F_AntiLeak_2_0_0_4_3: - E_0_3_4 + E_1_3_4 + y_F_0_0_4 <= 1
F_AntiLeak_2_0_0_4_5: - E_0_4_5 + E_1_4_5 + y_F_0_0_4 <= 1
F_AntiLeak_2_0_0_5_1: - E_0_1_5 + E_1_1_5 + y_F_0_0_5 <= 1
F_AntiLeak_2_0_0_5_2: - E_0_2_5 + E_1_2_5 + y_F_0_0_5 <= 1
F_AntiLeak_2_0_0_5_3: - E_0_3_5 + E_1_3_5 + y_F_0_0_5 <= 1
F_AntiLeak_2_0_0_5_4: - E_0_4_5 + E_1_4_5 + y_F_0_0_5 <= 1
F_AntiLeak_2_0_1_0_2: - E_0_0_2 + E_1_0_2 + y_F_0_1_0 <= 1
F_AntiLeak_2_0_1_0_3: - E_0_0_3 + E_1_0_3 + y_F_0_1_0 <= 1
F_AntiLeak_2_0_1_0_4: - E_0_0_4 + E_1_0_4 + y_F_0_1_0 <= 1
F_AntiLeak_2_0_1_0_5: - E_0_0_5 + E_1_0_5 + y_F_0_1_0 <= 1
F_AntiLeak_2_0_1_2_0: - E_0_0_2 + E_1_0_2 + y_F_0_1_2 <= 1
F_AntiLeak_2_0_1_2_3: - E_0_2_3 + E_1_2_3 + y_F_0_1_2 <= 1
F_AntiLeak_2_0_1_2_4: - E_0_2_4 + E_1_2_4 + y_F_0_1_2 <= 1
F_AntiLeak_2_0_1_2_5: - E_0_2_5 + E_1_2_5 + y_F_0_1_2 <= 1
F_AntiLeak_2_0_1_3_0: - E_0_0_3 + E_1_0_3 + y_F_0_1_3 <= 1
F_AntiLeak_2_0_1_3_2: - E_0_2_3 + E_1_2_3 + y_F_0_1_3 <= 1
F_AntiLeak_2_0_1_3_4: - E_0_3_4 + E_1_3_4 + y_F_0_1_3 <= 1
F_AntiLeak_2_0_1_3_5: - E_0_3_5 + E_1_3_5 + y_F_0_1_3 <= 1
F_AntiLeak_2_0_1_4_0: - E_0_0_4 + E_1_0_4 + y_F_0_1_4 <= 1
F_AntiLeak_2_0_1_4_2: - E_0_2_4 + E_1_2_4 + y_F_0_1_4 <= 1
F_AntiLeak_2_0_1_4_3: - E_0_3_4 + E_1_3_4 + y_F_0_1_4 <= 1
F_AntiLeak_2_0_1_4_5: - E_0_4_5 + E_1_4_5 + y_F_0_1_4 <= 1
F_AntiLeak_2_0_1_5_0: - E_0_0_5 + E_1_0_5 + y_F_0_1_5 <= 1
F_AntiLeak_2_0_1_5_2: - E_0_2_5 + E_1_2_5 + y_F_0_1_5 <= 1
F_AntiLeak_2_0_1_5_3: - E_0_3_5 + E_1_3_5 + y_F_0_1_5 <= 1
F_AntiLeak_2_0_1_5_4: - E_0_4_5 + E_1_4_5 + y_F_0_1_5 <= 1
F_AntiLeak_2_0_2_0_1: - E_0_0_1 + E_1_0_1 + y_F_0_2_0 <= 1
F_AntiLeak_2_0_2_0_3: - E_0_0_3 + E_1_0_3 + y_F_0_2_0 <= 1
F_AntiLeak_2_0_2_0_4: - E_0_0_4 + E_1_0_4 + y_F_0_2_0 <= 1
F_AntiLeak_2_0_2_0_5: - E_0_0_5 + E_1_0_5 + y_F_0_2_0 <= 1
F_AntiLeak_2_0_2_1_0: - E_0_0_1 + E_1_0_1 + y_F_0_2_1 <= 1
F_AntiLeak_2_0_2_1_3: - E_0_1_3 + E_1_1_3 + y_F_0_2_1 <= 1
F_AntiLeak_2_0_2_1_4: - E_0_1_4 + E_1_1_4 + y_F_0_2_1 <= 1
F_AntiLeak_2_0_2_1_5: - E_0_1_5 + E_1_1_5 + y_F_0_2_1 <= 1
F_AntiLeak_2_0_2_3_0: - E_0_0_3 + E_1_0_3 + y_F_0_2_3 <= 1
F_AntiLeak_2_0_2_3_1: - E_0_1_3 + E_1_1_3 + y_F_0_2_3 <= 1
F_AntiLeak_2_0_2_3_4: - E_0_3_4 + E_1_3_4 + y_F_0_2_3 <= 1
F_AntiLeak_2_0_2_3_5: - E_0_3_5 + E_1_3_5 + y_F_0_2_3 <= 1
F_AntiLeak_2_0_2_4_0: - E_0_0_4 + E_1_0_4 + y_F_0_2_4 <= 1
F_AntiLeak_2_0_2_4_1: - E_0_1_4 + E_1_1_4 + y_F_0_2_4 <= 1
F_AntiLeak_2_0_2_4_3: - E_0_3_4 + E_1_3_4 + y_F_0_2_4 <= 1
F_AntiLeak_2_0_2_4_5: - E_0_4_5 + E_1_4_5 + y_F_0_2_4 <= 1
F_AntiLeak_2_0_2_5_0: - E_0_0_5 + E_1_0_5 + y_F_0_2_5 <= 1
F_AntiLeak_2_0_2_5_1: - E_0_1_5 + E_1_1_5 + y_F_0_2_5 <= 1
F_AntiLeak_2_0_2_5_3: - E_0_3_5 + E_1_3_5 + y_F_0_2_5 <= 1
F_AntiLeak_2_0_2_5_4: - E_0_4_5 + E_1_4_5 + y_F_0_2_5 <= 1
F_AntiLeak_2_0_3_0_1: - E_0_0_1 + E_1_0_1 + y_F_0_3_0 <= 1
F_AntiLeak_2_0_3_0_2: - E_0_0_2 + E_1_0_2 + y_F_0_3_0 <= 1
F_AntiLeak_2_0_3_0_4: - E_0_0_4 + E_1_0_4 + y_F_0_3_0 <= 1
F_AntiLeak_2_0_3_0_5: - E_0_0_5 + E_1_0_5 + y_F_0_3_0 <= 1
F_AntiLeak_2_0_3_1_0: - E_0_0_1 + E_1_0_1 + y_F_0_3_1 <= 1
F_AntiLeak_2_0_3_1_2: - E_0_1_2 + E_1_1_2 + y_F_0_3_1 <= 1
F_AntiLeak_2_0_3_1_4: - E_0_1_4 + E_1_1_4 + y_F_0_3_1 <= 1
F_AntiLeak_2_0_3_1_5: - E_0_1_5 + E_1_1_5 + y_F_0_3_1 <= 1
F_AntiLeak_2_0_3_2_0: - E_0_0_2 + E_1_0_2 + y_F_0_3_2 <= 1
F_AntiLeak_2_0_3_2_1: - E_0_1_2 + E_1_1_2 + y_F_0_3_2 <= 1
F_AntiLeak_2_0_3_2_4: - E_0_2_4 + E_1_2_4 + y_F_0_3_2 <= 1
F_AntiLeak_2_0_3_2_5: - E_0_2_5 + E_1_2_5 + y_F_0_3_2 <= 1
F_AntiLeak_2_0_3_4_0: - E_0_0_4 + E_1_0_4 + y_F_0_3_4 <= 1
F_AntiLeak_2_0_3_4_1: - E_0_1_4 + E_1_1_4 + y_F_0_3_4 <= 1
F_AntiLeak_2_0_3_4_2: - E_0_2_4 + E_1_2_4 + y_F_0_3_4 <= 1
F_AntiLeak_2_0_3_4_5: - E_0_4_5 + E_1_4_5 + y_F_0_3_4 <= 1
F_AntiLeak_2_0_3_5_0: - E_0_0_5 + E_1_0_5 + y_F_0_3_5 <= 1
F_AntiLeak_2_0_3_5_1: - E_0_1_5 + E_1_1_5 + y_F_0_3_5 <= 1
F_AntiLeak_2_0_3_5_2: - E_0_2_5 + E_1_2_5 + y_F_0_3_5 <= 1
F_AntiLeak_2_0_3_5_4: - E_0_4_5 + E_1_4_5 + y_F_0_3_5 <= 1
F_AntiLeak_2_0_4_0_1: - E_0_0_1 + E_1_0_1 + y_F_0_4_0 <= 1
F_AntiLeak_2_0_4_0_2: - E_0_0_2 + E_1_0_2 + y_F_0_4_0 <= 1
F_AntiLeak_2_0_4_0_3: - E_0_0_3 + E_1_0_3 + y_F_0_4_0 <= 1
F_AntiLeak_2_0_4_0_5: - E_0_0_5 + E_1_0_5 + y_F_0_4_0 <= 1
F_AntiLeak_2_0_4_1_0: - E_0_0_1 + E_1_0_1 + y_F_0_4_1 <= 1
F_AntiLeak_2_0_4_1_2: - E_0_1_2 + E_1_1_2 + y_F_0_4_1 <= 1
F_AntiLeak_2_0_4_1_3: - E_0_1_3 + E_1_1_3 + y_F_0_4_1 <= 1
F_AntiLeak_2_0_4_1_5: - E_0_1_5 + E_1_1_5 + y_F_0_4_1 <= 1
F_AntiLeak_2_0_4_2_0: - E_0_0_2 + E_1_0_2 + y_F_0_4_2 <= 1
F_AntiLeak_2_0_4_2_1: - E_0_1_2 + E_1_1_2 + y_F_0_4_2 <= 1
F_AntiLeak_2_0_4_2_3: - E_0_2_3 + E_1_2_3 + y_F_0_4_2 <= 1
F_AntiLeak_2_0_4_2_5: - E_0_2_5 + E_1_2_5 + y_F_0_4_2 <= 1
F_AntiLeak_2_0_4_3_0: - E_0_0_3 + E_1_0_3 + y_F_0_4_3 <= 1
F_AntiLeak_2_0_4_3_1: - E_0_1_3 + E_1_1_3 + y_F_0_4_3 <= 1
F_AntiLeak_2_0_4_3_2: - E_0_2_3 + E_1_2_3 + y_F_0_4_3 <= 1
F_AntiLeak_2_0_4_3_5: - E_0_3_5 + E_1_3_5 + y_F_0_4_3 <= 1
F_AntiLeak_2_0_4_5_0: - E_0_0_5 + E_1_0_5 + y_F_0_4_5 <= 1
F_AntiLeak_2_0_4_5_1: - E_0_1_5 + E_1_1_5 + y_F_0_4_5 <= 1
F_AntiLeak_2_0_4_5_2: - E_0_2_5 + E_1_2_5 + y_F_0_4_5 <= 1
F_AntiLeak_2_0_4_5_3: - E_0_3_5 + E_1_3_5 + y_F_0_4_5 <= 1
F_AntiLeak_2_0_5_0_1: - E_0_0_1 + E_1_0_1 + y_F_0_5_0 <= 1
F_AntiLeak_2_0_5_0_2: - E_0_0_2 + E_1_0_2 + y_F_0_5_0 <= 1
F_AntiLeak_2_0_5_0_3: - E_0_0_3 + E_1_0_3 + y_F_0_5_0 <= 1
F_AntiLeak_2_0_5_0_4: - E_0_0_4 + E_1_0_4 + y_F_0_5_0 <= 1
F_AntiLeak_2_0_5_1_0: - E_0_0_1 + E_1_0_1 + y_F_0_5_1 <= 1
F_AntiLeak_2_0_5_1_2: - E_0_1_2 + E_1_1_2 + y_F_0_5_1 <= 1
F_AntiLeak_2_0_5_1_3: - E_0_1_3 + E_1_1_3 + y_F_0_5_1 <= 1
F_AntiLeak_2_0_5_1_4: - E_0_1_4 + E_1_1_4 + y_F_0_5_1 <= 1
F_AntiLeak_2_0_5_2_0: - E_0_0_2 + E_1_0_2 + y_F_0_5_2 <= 1
F_AntiLeak_2_0_5_2_1: - E_0_1_2 + E_1_1_2 + y_F_0_5_2 <= 1
F_AntiLeak_2_0_5_2_3: - E_0_2_3 + E_1_2_3 + y_F_0_5_2 <= 1
F_AntiLeak_2_0_5_2_4: - E_0_2_4 + E_1_2_4 + y_F_0_5_2 <= 1
F_AntiLeak_2_0_5_3_0: - E_0_0_3 + E_1_0_3 + y_F_0_5_3 <= 1
F_AntiLeak_2_0_5_3_1: - E_0_1_3 + E_1_1_3 + y_F_0_5_3 <= 1
F_AntiLeak_2_0_5_3_2: - E_0_2_3 + E_1_2_3 + y_F_0_5_3 <= 1
F_AntiLeak_2_0_5_3_4: - E_0_3_4 + E_1_3_4 + y_F_0_5_3 <= 1
F_AntiLeak_2_0_5_4_0: - E_0_0_4 + E_1_0_4 + y_F_0_5_4 <= 1
F_AntiLeak_2_0_5_4_1: - E_0_1_4 + E_1_1_4 + y_F_0_5_4 <= 1
F_AntiLeak_2_0_5_4_2: - E_0_2_4 + E_1_2_4 + y_F_0_5_4 <= 1
F_AntiLeak_2_0_5_4_3: - E_0_3_4 + E_1_3_4 + y_F_0_5_4 <= 1
F_AntiLeak_2_1_0_1_2: - E_1_1_2 + E_2_1_2 + y_F_1_0_1 <= 1
F_AntiLeak_2_1_0_1_3: - E_1_1_3 + E_2_1_3 + y_F_1_0_1 <= 1
F_AntiLeak_2_1_0_1_4: - E_1_1_4 + E_2_1_4 + y_F_1_0_1 <= 1
F_AntiLeak_2_1_0_1_5: - E_1_1_5 + E_2_1_5 + y_F_1_0_1 <= 1
F_AntiLeak_2_1_0_2_1: - E_1_1_2 + E_2_1_2 + y_F_1_0_2 <= 1
F_AntiLeak_2_1_0_2_3: - E_1_2_3 + E_2_2_3 + y_F_1_0_2 <= 1
F_AntiLeak_2_1_0_2_4: - E_1_2_4 + E_2_2_4 + y_F_1_0_2 <= 1
F_AntiLeak_2_1_0_2_5: - E_1_2_5 + E_2_2_5 + y_F_1_0_2 <= 1
F_AntiLeak_2_1_0_3_1: - E_1_1_3 + E_2_1_3 + y_F_1_0_3 <= 1
F_AntiLeak_2_1_0_3_2: - E_1_2_3 + E_2_2_3 + y_F_1_0_3 <= 1
F_AntiLeak_2_1_0_3_4: - E_1_3_4 + E_2_3_4 + y_F_1_0_3 <= 1
F_AntiLeak_2_1_0_3_5: - E_1_3_5 + E_2_3_5 + y_F_1_0_3 <= 1
F_AntiLeak_2_1_0_4_1: - E_1_1_4 + E_2_1_4 + y_F_1_0_4 <= 1
F_AntiLeak_2_1_0_4_2: - E_1_2_4 + E_2_2_4 + y_F_1_0_4 <= 1
F_AntiLeak_2_1_0_4_3: - E_1_3_4 + E_2_3_4 + y_F_1_0_4 <= 1
F_AntiLeak_2_1_0_4_5: - E_1_4_5 + E_2_4_5 + y_F_1_0_4 <= 1
F_AntiLeak_2_1_0_5_1: - E_1_1_5 + E_2_1_5 + y_F_1_0_5 <= 1
F_AntiLeak_2_1_0_5_2: - E_1_2_5 + E_2_2_5 + y_F_1_0_5 <= 1
F_AntiLeak_2_1_0_5_3: - E_1_3_5 + E_2_3_5 + y_F_1_0_5 <= 1
F_AntiLeak_2_1_0_5_4: - E_1_4_5 + E_2_4_5 + y_F_1_0_5 <= 1
F_AntiLeak_2_1_1_0_2: - E_1_0_2 + E_2_0_2 + y_F_1_1_0 <= 1
F_AntiLeak_2_1_1_0_3: - E_1_0_3 + E_2_0_3 + y_F_1_1_0 <= 1
F_AntiLeak_2_1_1_0_4: - E_1_0_4 + E_2_0_4 + y_F_1_1_0 <= 1
F_AntiLeak_2_1_1_0_5: - E_1_0_5 + E_2_0_5 + y_F_1_1_0 <= 1
F_AntiLeak_2_1_1_2_0: - E_1_0_2 + E_2_0_2 + y_F_1_1_2 <= 1
F_AntiLeak_2_1_1_2_3: - E_1_2_3 + E_2_2_3 + y_F_1_1_2 <= 1
F_AntiLeak_2_1_1_2_4: - E_1_2_4 + E_2_2_4 + y_F_1_1_2 <= 1
F_AntiLeak_2_1_1_2_5: - E_1_2_5 + E_2_2_5 + y_F_1_1_2 <= 1
F_AntiLeak_2_1_1_3_0: - E_1_0_3 + E_2_0_3 + y_F_1_1_3 <= 1
F_AntiLeak_2_1_1_3_2: - E_1_2_3 + E_2_2_3 + y_F_1_1_3 <= 1
F_AntiLeak_2_1_1_3_4: - E_1_3_4 + E_2_3_4 + y_F_1_1_3 <= 1
F_AntiLeak_2_1_1_3_5: - E_1_3_5 + E_2_3_5 + y_F_1_1_3 <= 1
F_AntiLeak_2_1_1_4_0: - E_1_0_4 + E_2_0_4 + y_F_1_1_4 <= 1
F_AntiLeak_2_1_1_4_2: - E_1_2_4 + E_2_2_4 + y_F_1_1_4 <= 1
F_AntiLeak_2_1_1_4_3: - E_1_3_4 + E_2_3_4 + y_F_1_1_4 <= 1
F_AntiLeak_2_1_1_4_5: - E_1_4_5 + E_2_4_5 + y_F_1_1_4 <= 1
F_AntiLeak_2_1_1_5_0: - E_1_0_5 + E_2_0_5 + y_F_1_1_5 <= 1
F_AntiLeak_2_1_1_5_2: - E_1_2_5 + E_2_2_5 + y_F_1_1_5 <= 1
F_AntiLeak_2_1_1_5_3: - E_1_3_5 + E_2_3_5 + y_F_1_1_5 <= 1
F_AntiLeak_2_1_1_5_4: - E_1_4_5 + E_2_4_5 + y_F_1_1_5 <= 1
F_AntiLeak_2_1_2_0_1: - E_1_0_1 + E_2_0_1 + y_F_1_2_0 <= 1
F_AntiLeak_2_1_2_0_3: - E_1_0_3 + E_2_0_3 + y_F_1_2_0 <= 1
F_AntiLeak_2_1_2_0_4: - E_1_0_4 + E_2_0_4 + y_F_1_2_0 <= 1
F_AntiLeak_2_1_2_0_5: - E_1_0_5 + E_2_0_5 + y_F_1_2_0 <= 1
F_AntiLeak_2_1_2_1_0: - E_1_0_1 + E_2_0_1 + y_F_1_2_1 <= 1
F_AntiLeak_2_1_2_1_3: - E_1_1_3 + E_2_1_3 + y_F_1_2_1 <= 1
F_AntiLeak_2_1_2_1_4: - E_1_1_4 + E_2_1_4 + y_F_1_2_1 <= 1
F_AntiLeak_2_1_2_1_5: - E_1_1_5 + E_2_1_5 + y_F_1_2_1 <= 1
F_AntiLeak_2_1_2_3_0: - E_1_0_3 + E_2_0_3 + y_F_1_2_3 <= 1
F_AntiLeak_2_1_2_3_1: - E_1_1_3 + E_2_1_3 + y_F_1_2_3 <= 1
F_AntiLeak_2_1_2_3_4: - E_1_3_4 + E_2_3_4 + y_F_1_2_3 <= 1
F_AntiLeak_2_1_2_3_5: - E_1_3_5 + E_2_3_5 + y_F_1_2_3 <= 1
F_AntiLeak_2_1_2_4_0: - E_1_0_4 + E_2_0_4 + y_F_1_2_4 <= 1
F_AntiLeak_2_1_2_4_1: - E_1_1_4 + E_2_1_4 + y_F_1_2_4 <= 1
F_AntiLeak_2_1_2_4_3: - E_1_3_4 + E_2_3_4 + y_F_1_2_4 <= 1
F_AntiLeak_2_1_2_4_5: - E_1_4_5 + E_2_4_5 + y_F_1_2_4 <= 1
F_AntiLeak_2_1_2_5_0: - E_1_0_5 + E_2_0_5 + y_F_1_2_5 <= 1
F_AntiLeak_2_1_2_5_1: - E_1_1_5 + E_2_1_5 + y_F_1_2_5 <= 1
F_AntiLeak_2_1_2_5_3: - E_1_3_5 + E_2_3_5 + y_F_1_2_5 <= 1
F_AntiLeak_2_1_2_5_4: - E_1_4_5 + E_2_4_5 + y_F_1_2_5 <= 1
F_AntiLeak_2_1_3_0_1: - E_1_0_1 + E_2_0_1 + y_F_1_3_0 <= 1
F_AntiLeak_2_1_3_0_2: - E_1_0_2 + E_2_0_2 + y_F_1_3_0 <= 1
F_AntiLeak_2_1_3_0_4: - E_1_0_4 + E_2_0_4 + y_F_1_3_0 <= 1
F_AntiLeak_2_1_3_0_5: - E_1_0_5 + E_2_0_5 + y_F_1_3_0 <= 1
F_AntiLeak_2_1_3_1_0: - E_1_0_1 + E_2_0_1 + y_F_1_3_1 <= 1
F_AntiLeak_2_1_3_1_2: - E_1_1_2 + E_2_1_2 + y_F_1_3_1 <= 1
F_AntiLeak_2_1_3_1_4: - E_1_1_4 + E_2_1_4 + y_F_1_3_1 <= 1
F_AntiLeak_2_1_3_1_5: - E_1_1_5 + E_2_1_5 + y_F_1_3_1 <= 1
F_AntiLeak_2_1_3_2_0: - E_1_0_2 + E_2_0_2 + y_F_1_3_2 <= 1
F_AntiLeak_2_1_3_2_1: - E_1_1_2 + E_2_1_2 + y_F_1_3_2 <= 1
F_AntiLeak_2_1_3_2_4: - E_1_2_4 + E_2_2_4 + y_F_1_3_2 <= 1
F_AntiLeak_2_1_3_2_5: - E_1_2_5 + E_2_2_5 + y_F_1_3_2 <= 1
F_AntiLeak_2_1_3_4_0: - E_1_0_4 + E_2_0_4 + y_F_1_3_4 <= 1
F_AntiLeak_2_1_3_4_1: - E_1_1_4 + E_2_1_4 + y_F_1_3_4 <= 1
F_AntiLeak_2_1_3_4_2: - E_1_2_4 + E_2_2_4 + y_F_1_3_4 <= 1
F_AntiLeak_2_1_3_4_5: - E_1_4_5 + E_2_4_5 + y_F_1_3_4 <= 1
F_AntiLeak_2_1_3_5_0: - E_1_0_5 + E_2_0_5 + y_F_1_3_5 <= 1
F_AntiLeak_2_1_3_5_1: - E_1_1_5 + E_2_1_5 + y_F_1_3_5 <= 1
F_AntiLeak_2_1_3_5_2: - E_1_2_5 + E_2_2_5 + y_F_1_3_5 <= 1
F_AntiLeak_2_1_3_5_4: - E_1_4_5 + E_2_4_5 + y_F_1_3_5 <= 1
F_AntiLeak_2_1_4_0_1: - E_1_0_1 + E_2_0_1 + y_F_1_4_0 <= 1
F_AntiLeak_2_1_4_0_2: - E_1_0_2 + E_2_0_2 + y_F_1_4_0 <= 1
F_AntiLeak_2_1_4_0_3: - E_1_0_3 + E_2_0_3 + y_F_1_4_0 <= 1
F_AntiLeak_2_1_4_0_5: - E_1_0_5 + E_2_0_5 + y_F_1_4_0 <= 1
F_AntiLeak_2_1_4_1_0: - E_1_0_1 + E_2_0_1 + y_F_1_4_1 <= 1
F_AntiLeak_2_1_4_1_2: - E_1_1_2 + E_2_1_2 + y_F_1_4_1 <= 1
F_AntiLeak_2_1_4_1_3: - E_1_1_3 + E_2_1_3 + y_F_1_4_1 <= 1
F_AntiLeak_2_1_4_1_5: - E_1_1_5 + E_2_1_5 + y_F_1_4_1 <= 1
F_AntiLeak_2_1_4_2_0: - E_1_0_2 + E_2_0_2 + y_F_1_4_2 <= 1
F_AntiLeak_2_1_4_2_1: - E_1_1_2 + E_2_1_2 + y_F_1_4_2 <= 1
F_AntiLeak_2_1_4_2_3: - E_1_2_3 + E_2_2_3 + y_F_1_4_2 <= 1
F_AntiLeak_2_1_4_2_5: - E_1_2_5 + E_2_2_5 + y_F_1_4_2 <= 1
F_AntiLeak_2_1_4_3_0: - E_1_0_3 + E_2_0_3 + y_F_1_4_3 <= 1
F_AntiLeak_2_1_4_3_1: - E_1_1_3 + E_2_1_3 + y_F_1_4_3 <= 1
F_AntiLeak_2_1_4_3_2: - E_1_2_3 + E_2_2_3 + y_F_1_4_3 <= 1
F_AntiLeak_2_1_4_3_5: - E_1_3_5 + E_2_3_5 + y_F_1_4_3 <= 1
F_AntiLeak_2_1_4_5_0: - E_1_0_5 + E_2_0_5 + y_F_1_4_5 <= 1
F_AntiLeak_2_1_4_5_1: - E_1_1_5 + E_2_1_5 + y_F_1_4_5 <= 1
F_AntiLeak_2_1_4_5_2: - E_1_2_5 + E_2_2_5 + y_F_1_4_5 <= 1
F_AntiLeak_2_1_4_5_3: - E_1_3_5 + E_2_3_5 + y_F_1_4_5 <= 1
F_AntiLeak_2_1_5_0_1: - E_1_0_1 + E_2_0_1 + y_F_1_5_0 <= 1
F_AntiLeak_2_1_5_0_2: - E_1_0_2 + E_2_0_2 + y_F_1_5_0 <= 1
F_AntiLeak_2_1_5_0_3: - E_1_0_3 + E_2_0_3 + y_F_1_5_0 <= 1
F_AntiLeak_2_1_5_0_4: - E_1_0_4 + E_2_0_4 + y_F_1_5_0 <= 1
F_AntiLeak_2_1_5_1_0: - E_1_0_1 + E_2_0_1 + y_F_1_5_1 <= 1
F_AntiLeak_2_1_5_1_2: - E_1_1_2 + E_2_1_2 + y_F_1_5_1 <= 1
F_AntiLeak_2_1_5_1_3: - E_1_1_3 + E_2_1_3 + y_F_1_5_1 <= 1
F_AntiLeak_2_1_5_1_4: - E_1_1_4 + E_2_1_4 + y_F_1_5_1 <= 1
F_AntiLeak_2_1_5_2_0: - E_1_0_2 + E_2_0_2 + y_F_1_5_2 <= 1
F_AntiLeak_2_1_5_2_1: - E_1_1_2 + E_2_1_2 + y_F_1_5_2 <= 1
F_AntiLeak_2_1_5_2_3: - E_1_2_3 + E_2_2_3 + y_F_1_5_2 <= 1
F_AntiLeak_2_1_5_2_4: - E_1_2_4 + E_2_2_4 + y_F_1_5_2 <= 1
F_AntiLeak_2_1_5_3_0: - E_1_0_3 + E_2_0_3 + y_F_1_5_3 <= 1
F_AntiLeak_2_1_5_3_1: - E_1_1_3 + E_2_1_3 + y_F_1_5_3 <= 1
F_AntiLeak_2_1_5_3_2: - E_1_2_3 + E_2_2_3 + y_F_1_5_3 <= 1
F_AntiLeak_2_1_5_3_4: - E_1_3_4 + E_2_3_4 + y_F_1_5_3 <= 1
F_AntiLeak_2_1_5_4_0: - E_1_0_4 + E_2_0_4 + y_F_1_5_4 <= 1
F_AntiLeak_2_1_5_4_1: - E_1_1_4 + E_2_1_4 + y_F_1_5_4 <= 1
F_AntiLeak_2_1_5_4_2: - E_1_2_4 + E_2_2_4 + y_F_1_5_4 <= 1
F_AntiLeak_2_1_5_4_3: - E_1_3_4 + E_2_3_4 + y_F_1_5_4 <= 1
F_AntiLeak_2_2_0_1_2: - E_2_1_2 + E_3_1_2 + y_F_2_0_1 <= 1
F_AntiLeak_2_2_0_1_3: - E_2_1_3 + E_3_1_3 + y_F_2_0_1 <= 1
F_AntiLeak_2_2_0_1_4: - E_2_1_4 + E_3_1_4 + y_F_2_0_1 <= 1
F_AntiLeak_2_2_0_1_5: - E_2_1_5 + E_3_1_5 + y_F_2_0_1 <= 1
F_AntiLeak_2_2_0_2_1: - E_2_1_2 + E_3_1_2 + y_F_2_0_2 <= 1
F_AntiLeak_2_2_0_2_3: - E_2_2_3 + E_3_2_3 + y_F_2_0_2 <= 1
F_AntiLeak_2_2_0_2_4: - E_2_2_4 + E_3_2_4 + y_F_2_0_2 <= 1
F_AntiLeak_2_2_0_2_5: - E_2_2_5 + E_3_2_5 + y_F_2_0_2 <= 1
F_AntiLeak_2_2_0_3_1: - E_2_1_3 + E_3_1_3 + y_F_2_0_3 <= 1
F_AntiLeak_2_2_0_3_2: - E_2_2_3 + E_3_2_3 + y_F_2_0_3 <= 1
F_AntiLeak_2_2_0_3_4: - E_2_3_4 + E_3_3_4 + y_F_2_0_3 <= 1
F_AntiLeak_2_2_0_3_5: - E_2_3_5 + E_3_3_5 + y_F_2_0_3 <= 1
F_AntiLeak_2_2_0_4_1: - E_2_1_4 + E_3_1_4 + y_F_2_0_4 <= 1
F_AntiLeak_2_2_0_4_2: - E_2_2_4 + E_3_2_4 + y_F_2_0_4 <= 1
F_AntiLeak_2_2_0_4_3: - E_2_3_4 + E_3_3_4 + y_F_2_0_4 <= 1
F_AntiLeak_2_2_0_4_5: - E_2_4_5 + E_3_4_5 + y_F_2_0_4 <= 1
F_AntiLeak_2_2_0_5_1: - E_2_1_5 + E_3_1_5 + y_F_2_0_5 <= 1
F_AntiLeak_2_2_0_5_2: - E_2_2_5 + E_3_2_5 + y_F_2_0_5 <= 1
F_AntiLeak_2_2_0_5_3: - E_2_3_5 + E_3_3_5 + y_F_2_0_5 <= 1
F_AntiLeak_2_2_0_5_4: - E_2_4_5 + E_3_4_5 + y_F_2_0_5 <= 1
F_AntiLeak_2_2_1_0_2: - E_2_0_2 + E_3_0_2 + y_F_2_1_0 <= 1
F_AntiLeak_2_2_1_0_3: - E_2_0_3 + E_3_0_3 + y_F_2_1_0 <= 1
F_AntiLeak_2_2_1_0_4: - E_2_0_4 + E_3_0_4 + y_F_2_1_0 <= 1
F_AntiLeak_2_2_1_0_5: - E_2_0_5 + E_3_0_5 + y_F_2_1_0 <= 1
F_AntiLeak_2_2_1_2_0: - E_2_0_2 + E_3_0_2 + y_F_2_1_2 <= 1
F_AntiLeak_2_2_1_2_3: - E_2_2_3 + E_3_2_3 + y_F_2_1_2 <= 1
F_AntiLeak_2_2_1_2_4: - E_2_2_4 + E_3_2_4 + y_F_2_1_2 <= 1
F_AntiLeak_2_2_1_2_5: - E_2_2_5 + E_3_2_5 + y_F_2_1_2 <= 1
F_AntiLeak_2_2_1_3_0: - E_2_0_3 + E_3_0_3 + y_F_2_1_3 <= 1
F_AntiLeak_2_2_1_3_2: - E_2_2_3 + E_3_2_3 + y_F_2_1_3 <= 1
F_AntiLeak_2_2_1_3_4: - E_2_3_4 + E_3_3_4 + y_F_2_1_3 <= 1
F_AntiLeak_2_2_1_3_5: - E_2_3_5 + E_3_3_5 + y_F_2_1_3 <= 1
F_AntiLeak_2_2_1_4_0: - E_2_0_4 + E_3_0_4 + y_F_2_1_4 <= 1
F_AntiLeak_2_2_1_4_2: - E_2_2_4 + E_3_2_4 + y_F_2_1_4 <= 1
F_AntiLeak_2_2_1_4_3: - E_2_3_4 + E_3_3_4 + y_F_2_1_4 <= 1
F_AntiLeak_2_2_1_4_5: - E_2_4_5 + E_3_4_5 + y_F_2_1_4 <= 1
F_AntiLeak_2_2_1_5_0: - E_2_0_5 + E_3_0_5 + y_F_2_1_5 <= 1
F_AntiLeak_2_2_1_5_2: - E_2_2_5 + E_3_2_5 + y_F_2_1_5 <= 1
F_AntiLeak_2_2_1_5_3: - E_2_3_5 + E_3_3_5 + y_F_2_1_5 <= 1
F_AntiLeak_2_2_1_5_4: - E_2_4_5 + E_3_4_5 + y_F_2_1_5 <= 1
F_AntiLeak_2_2_2_0_1: - E_2_0_1 + E_3_0_1 + y_F_2_2_0 <= 1
F_AntiLeak_2_2_2_0_3: - E_2_0_3 + E_3_0_3 + y_F_2_2_0 <= 1
F_AntiLeak_2_2_2_0_4: - E_2_0_4 + E_3_0_4 + y_F_2_2_0 <= 1
F_AntiLeak_2_2_2_0_5: - E_2_0_5 + E_3_0_5 + y_F_2_2_0 <= 1
F_AntiLeak_2_2_2_1_0: - E_2_0_1 + E_3_0_1 + y_F_2_2_1 <= 1
F_AntiLeak_2_2_2_1_3: - E_2_1_3 + E_3_1_3 + y_F_2_2_1 <= 1
F_AntiLeak_2_2_2_1_4: - E_2_1_4 + E_3_1_4 + y_F_2_2_1 <= 1
F_AntiLeak_2_2_2_1_5: - E_2_1_5 + E_3_1_5 + y_F_2_2_1 <= 1
F_AntiLeak_2_2_2_3_0: - E_2_0_3 + E_3_0_3 + y_F_2_2_3 <= 1
F_AntiLeak_2_2_2_3_1: - E_2_1_3 + E_3_1_3 + y_F_2_2_3 <= 1
F_AntiLeak_2_2_2_3_4: - E_2_3_4 + E_3_3_4 + y_F_2_2_3 <= 1
F_AntiLeak_2_2_2_3_5: - E_2_3_5 + E_3_3_5 + y_F_2_2_3 <= 1
F_AntiLeak_2_2_2_4_0: - E_2_0_4 + E_3_0_4 + y_F_2_2_4 <= 1
F_AntiLeak_2_2_2_4_1: - E_2_1_4 + E_3_1_4 + y_F_2_2_4 <= 1
F_AntiLeak_2_2_2_4_3: - E_2_3_4 + E_3_3_4 + y_F_2_2_4 <= 1
F_AntiLeak_2_2_2_4_5: - E_2_4_5 + E_3_4_5 + y_F_2_2_4 <= 1
F_AntiLeak_2_2_2_5_0: - E_2_0_5 + E_3_0_5 + y_F_2_2_5 <= 1
F_AntiLeak_2_2_2_5_1: - E_2_1_5 + E_3_1_5 + y_F_2_2_5 <= 1
F_AntiLeak_2_2_2_5_3: - E_2_3_5 + E_3_3_5 + y_F_2_2_5 <= 1
F_AntiLeak_2_2_2_5_4: - E_2_4_5 + E_3_4_5 + y_F_2_2_5 <= 1
F_AntiLeak_2_2_3_0_1: - E_2_0_1 + E_3_0_1 + y_F_2_3_0 <= 1
F_AntiLeak_2_2_3_0_2: - E_2_0_2 + E_3_0_2 + y_F_2_3_0 <= 1
F_AntiLeak_2_2_3_0_4: - E_2_0_4 + E_3_0_4 + y_F_2_3_0 <= 1
F_AntiLeak_2_2_3_0_5: - E_2_0_5 + E_3_0_5 + y_F_2_3_0 <= 1
F_AntiLeak_2_2_3_1_0: - E_2_0_1 + E_3_0_1 + y_F_2_3_1 <= 1
F_AntiLeak_2_2_3_1_2: - E_2_1_2 + E_3_1_2 + y_F_2_3_1 <= 1
F_AntiLeak_2_2_3_1_4: - E_2_1_4 + E_3_1_4 + y_F_2_3_1 <= 1
F_AntiLeak_2_2_3_1_5: - E_2_1_5 + E_3_1_5 + y_F_2_3_1 <= 1
F_AntiLeak_2_2_3_2_0: - E_2_0_2 + E_3_0_2 + y_F_2_3_2 <= 1
F_AntiLeak_2_2_3_2_1: - E_2_1_2 + E_3_1_2 + y_F_2_3_2 <= 1
F_AntiLeak_2_2_3_2_4: - E_2_2_4 + E_3_2_4 + y_F_2_3_2 <= 1
F_AntiLeak_2_2_3_2_5: - E_2_2_5 + E_3_2_5 + y_F_2_3_2 <= 1
F_AntiLeak_2_2_3_4_0: - E_2_0_4 + E_3_0_4 + y_F_2_3_4 <= 1
F_AntiLeak_2_2_3_4_1: - E_2_1_4 + E_3_1_4 + y_F_2_3_4 <= 1
F_AntiLeak_2_2_3_4_2: - E_2_2_4 + E_3_2_4 + y_F_2_3_4 <= 1
F_AntiLeak_2_2_3_4_5: - E_2_4_5 + E_3_4_5 + y_F_2_3_4 <= 1
F_AntiLeak_2_2_3_5_0: - E_2_0_5 + E_3_0_5 + y_F_2_3_5 <= 1
F_AntiLeak_2_2_3_5_1: - E_2_1_5 + E_3_1_5 + y_F_2_3_5 <= 1
F_AntiLeak_2_2_3_5_2: - E_2_2_5 + E_3_2_5 + y_F_2_3_5 <= 1
F_AntiLeak_2_2_3_5_4: - E_2_4_5 + E_3_4_5 + y_F_2_3_5 <= 1
F_AntiLeak_2_2_4_0_1: - E_2_0_1 + E_3_0_1 + y_F_2_4_0 <= 1
F_AntiLeak_2_2_4_0_2: - E_2_0_2 + E_3_0_2 + y_F_2_4_0 <= 1
F_AntiLeak_2_2_4_0_3: - E_2_0_3 + E_3_0_3 + y_F_2_4_0 <= 1
F_AntiLeak_2_2_4_0_5: - E_2_0_5 + E_3_0_5 + y_F_2_4_0 <= 1
F_AntiLeak_2_2_4_1_0: - E_2_0_1 + E_3_0_1 + y_F_2_4_1 <= 1
F_AntiLeak_2_2_4_1_2: - E_2_1_2 + E_3_1_2 + y_F_2_4_1 <= 1
F_AntiLeak_2_2_4_1_3: - E_2_1_3 + E_3_1_3 + y_F_2_4_1 <= 1
F_AntiLeak_2_2_4_1_5: - E_2_1_5 + E_3_1_5 + y_F_2_4_1 <= 1
F_AntiLeak_2_2_4_2_0: - E_2_0_2 + E_3_0_2 + y_F_2_4_2 <= 1
F_AntiLeak_2_2_4_2_1: - E_2_1_2 + E_3_1_2 + y_F_2_4_2 <= 1
F_AntiLeak_2_2_4_2_3: - E_2_2_3 + E_3_2_3 + y_F_2_4_2 <= 1
F_AntiLeak_2_2_4_2_5: - E_2_2_5 + E_3_2_5 + y_F_2_4_2 <= 1
F_AntiLeak_2_2_4_3_0: - E_2_0_3 + E_3_0_3 + y_F_2_4_3 <= 1
F_AntiLeak_2_2_4_3_1: - E_2_1_3 + E_3_1_3 + y_F_2_4_3 <= 1
F_AntiLeak_2_2_4_3_2: - E_2_2_3 + E_3_2_3 + y_F_2_4_3 <= 1
F_AntiLeak_2_2_4_3_5: - E_2_3_5 + E_3_3_5 + y_F_2_4_3 <= 1
F_AntiLeak_2_2_4_5_0: - E_2_0_5 + E_3_0_5 + y_F_2_4_5 <= 1
F_AntiLeak_2_2_4_5_1: - E_2_1_5 + E_3_1_5 + y_F_2_4_5 <= 1
F_AntiLeak_2_2_4_5_2: - E_2_2_5 + E_3_2_5 + y_F_2_4_5 <= 1
F_AntiLeak_2_2_4_5_3: - E_2_3_5 + E_3_3_5 + y_F_2_4_5 <= 1
F_AntiLeak_2_2_5_0_1: - E_2_0_1 + E_3_0_1 + y_F_2_5_0 <= 1
F_AntiLeak_2_2_5_0_2: - E_2_0_2 + E_3_0_2 + y_F_2_5_0 <= 1
F_AntiLeak_2_2_5_0_3: - E_2_0_3 + E_3_0_3 + y_F_2_5_0 <= 1
F_AntiLeak_2_2_5_0_4: - E_2_0_4 + E_3_0_4 + y_F_2_5_0 <= 1
F_AntiLeak_2_2_5_1_0: - E_2_0_1 + E_3_0_1 + y_F_2_5_1 <= 1
F_AntiLeak_2_2_5_1_2: - E_2_1_2 + E_3_1_2 + y_F_2_5_1 <= 1
F_AntiLeak_2_2_5_1_3: - E_2_1_3 + E_3_1_3 + y_F_2_5_1 <= 1
F_AntiLeak_2_2_5_1_4: - E_2_1_4 + E_3_1_4 + y_F_2_5_1 <= 1
F_AntiLeak_2_2_5_2_0: - E_2_0_2 + E_3_0_2 + y_F_2_5_2 <= 1
F_AntiLeak_2_2_5_2_1: - E_2_1_2 + E_3_1_2 + y_F_2_5_2 <= 1
F_AntiLeak_2_2_5_2_3: - E_2_2_3 + E_3_2_3 + y_F_2_5_2 <= 1
F_AntiLeak_2_2_5_2_4: - E_2_2_4 + E_3_2_4 + y_F_2_5_2 <= 1
F_AntiLeak_2_2_5_3_0: - E_2_0_3 + E_3_0_3 + y_F_2_5_3 <= 1
F_AntiLeak_2_2_5_3_1: - E_2_1_3 + E_3_1_3 + y_F_2_5_3 <= 1
F_AntiLeak_2_2_5_3_2: - E_2_2_3 + E_3_2_3 + y_F_2_5_3 <= 1
F_AntiLeak_2_2_5_3_4: - E_2_3_4 + E_3_3_4 + y_F_2_5_3 <= 1
F_AntiLeak_2_2_5_4_0: - E_2_0_4 + E_3_0_4 + y_F_2_5_4 <= 1
F_AntiLeak_2_2_5_4_1: - E_2_1_4 + E_3_1_4 + y_F_2_5_4 <= 1
F_AntiLeak_2_2_5_4_2: - E_2_2_4 + E_3_2_4 + y_F_2_5_4 <= 1
F_AntiLeak_2_2_5_4_3: - E_2_3_4 + E_3_3_4 + y_F_2_5_4 <= 1
F_AntiLeak_2_3_0_1_2: - E_3_1_2 + E_4_1_2 + y_F_3_0_1 <= 1
F_AntiLeak_2_3_0_1_3: - E_3_1_3 + E_4_1_3 + y_F_3_0_1 <= 1
F_AntiLeak_2_3_0_1_4: - E_3_1_4 + E_4_1_4 + y_F_3_0_1 <= 1
F_AntiLeak_2_3_0_1_5: - E_3_1_5 + E_4_1_5 + y_F_3_0_1 <= 1
F_AntiLeak_2_3_0_2_1: - E_3_1_2 + E_4_1_2 + y_F_3_0_2 <= 1
F_AntiLeak_2_3_0_2_3: - E_3_2_3 + E_4_2_3 + y_F_3_0_2 <= 1
F_AntiLeak_2_3_0_2_4: - E_3_2_4 + E_4_2_4 + y_F_3_0_2 <= 1
F_AntiLeak_2_3_0_2_5: - E_3_2_5 + E_4_2_5 + y_F_3_0_2 <= 1
F_AntiLeak_2_3_0_3_1: - E_3_1_3 + E_4_1_3 + y_F_3_0_3 <= 1
F_AntiLeak_2_3_0_3_2: - E_3_2_3 + E_4_2_3 + y_F_3_0_3 <= 1
F_AntiLeak_2_3_0_3_4: - E_3_3_4 + E_4_3_4 + y_F_3_0_3 <= 1
F_AntiLeak_2_3_0_3_5: - E_3_3_5 + E_4_3_5 + y_F_3_0_3 <= 1
F_AntiLeak_2_3_0_4_1: - E_3_1_4 + E_4_1_4 + y_F_3_0_4 <= 1
F_AntiLeak_2_3_0_4_2: - E_3_2_4 + E_4_2_4 + y_F_3_0_4 <= 1
F_AntiLeak_2_3_0_4_3: - E_3_3_4 + E_4_3_4 + y_F_3_0_4 <= 1
F_AntiLeak_2_3_0_4_5: - E_3_4_5 + E_4_4_5 + y_F_3_0_4 <= 1
F_AntiLeak_2_3_0_5_1: - E_3_1_5 + E_4_1_5 + y_F_3_0_5 <= 1
F_AntiLeak_2_3_0_5_2: - E_3_2_5 + E_4_2_5 + y_F_3_0_5 <= 1
F_AntiLeak_2_3_0_5_3: - E_3_3_5 + E_4_3_5 + y_F_3_0_5 <= 1
F_AntiLeak_2_3_0_5_4: - E_3_4_5 + E_4_4_5 + y_F_3_0_5 <= 1
F_AntiLeak_2_3_1_0_2: - E_3_0_2 + E_4_0_2 + y_F_3_1_0 <= 1
F_AntiLeak_2_3_1_0_3: - E_3_0_3 + E_4_0_3 + y_F_3_1_0 <= 1
F_AntiLeak_2_3_1_0_4: - E_3_0_4 + E_4_0_4 + y_F_3_1_0 <= 1
F_AntiLeak_2_3_1_0_5: - E_3_0_5 + E_4_0_5 + y_F_3_1_0 <= 1
F_AntiLeak_2_3_1_2_0: - E_3_0_2 + E_4_0_2 + y_F_3_1_2 <= 1
F_AntiLeak_2_3_1_2_3: - E_3_2_3 + E_4_2_3 + y_F_3_1_2 <= 1
F_AntiLeak_2_3_1_2_4: - E_3_2_4 + E_4_2_4 + y_F_3_1_2 <= 1
F_AntiLeak_2_3_1_2_5: - E_3_2_5 + E_4_2_5 + y_F_3_1_2 <= 1
F_AntiLeak_2_3_1_3_0: - E_3_0_3 + E_4_0_3 + y_F_3_1_3 <= 1
F_AntiLeak_2_3_1_3_2: - E_3_2_3 + E_4_2_3 + y_F_3_1_3 <= 1
F_AntiLeak_2_3_1_3_4: - E_3_3_4 + E_4_3_4 + y_F_3_1_3 <= 1
F_AntiLeak_2_3_1_3_5: - E_3_3_5 + E_4_3_5 + y_F_3_1_3 <= 1
F_AntiLeak_2_3_1_4_0: - E_3_0_4 + E_4_0_4 + y_F_3_1_4 <= 1
F_AntiLeak_2_3_1_4_2: - E_3_2_4 + E_4_2_4 + y_F_3_1_4 <= 1
F_AntiLeak_2_3_1_4_3: - E_3_3_4 + E_4_3_4 + y_F_3_1_4 <= 1
F_AntiLeak_2_3_1_4_5: - E_3_4_5 + E_4_4_5 + y_F_3_1_4 <= 1
F_AntiLeak_2_3_1_5_0: - E_3_0_5 + E_4_0_5 + y_F_3_1_5 <= 1
F_AntiLeak_2_3_1_5_2: - E_3_2_5 + E_4_2_5 + y_F_3_1_5 <= 1
F_AntiLeak_2_3_1_5_3: - E_3_3_5 + E_4_3_5 + y_F_3_1_5 <= 1
F_AntiLeak_2_3_1_5_4: - E_3_4_5 + E_4_4_5 + y_F_3_1_5 <= 1
F_AntiLeak_2_3_2_0_1: - E_3_0_1 + E_4_0_1 + y_F_3_2_0 <= 1
F_AntiLeak_2_3_2_0_3: - E_3_0_3 + E_4_0_3 + y_F_3_2_0 <= 1
F_AntiLeak_2_3_2_0_4: - E_3_0_4 + E_4_0_4 + y_F_3_2_0 <= 1
F_AntiLeak_2_3_2_0_5: - E_3_0_5 + E_4_0_5 + y_F_3_2_0 <= 1
F_AntiLeak_2_3_2_1_0: - E_3_0_1 + E_4_0_1 + y_F_3_2_1 <= 1
F_AntiLeak_2_3_2_1_3: - E_3_1_3 + E_4_1_3 + y_F_3_2_1 <= 1
F_AntiLeak_2_3_2_1_4: - E_3_1_4 + E_4_1_4 + y_F_3_2_1 <= 1
F_AntiLeak_2_3_2_1_5: - E_3_1_5 + E_4_1_5 + y_F_3_2_1 <= 1
F_AntiLeak_2_3_2_3_0: - E_3_0_3 + E_4_0_3 + y_F_3_2_3 <= 1
F_AntiLeak_2_3_2_3_1: - E_3_1_3 + E_4_1_3 + y_F_3_2_3 <= 1
F_AntiLeak_2_3_2_3_4: - E_3_3_4 + E_4_3_4 + y_F_3_2_3 <= 1
F_AntiLeak_2_3_2_3_5: - E_3_3_5 + E_4_3_5 + y_F_3_2_3 <= 1
F_AntiLeak_2_3_2_4_0: - E_3_0_4 + E_4_0_4 + y_F_3_2_4 <= 1
F_AntiLeak_2_3_2_4_1: - E_3_1_4 + E_4_1_4 + y_F_3_2_4 <= 1
F_AntiLeak_2_3_2_4_3: - E_3_3_4 + E_4_3_4 + y_F_3_2_4 <= 1
F_AntiLeak_2_3_2_4_5: - E_3_4_5 + E_4_4_5 + y_F_3_2_4 <= 1
F_AntiLeak_2_3_2_5_0: - E_3_0_5 + E_4_0_5 + y_F_3_2_5 <= 1
F_AntiLeak_2_3_2_5_1: - E_3_1_5 + E_4_1_5 + y_F_3_2_5 <= 1
F_AntiLeak_2_3_2_5_3: - E_3_3_5 + E_4_3_5 + y_F_3_2_5 <= 1
F_AntiLeak_2_3_2_5_4: - E_3_4_5 + E_4_4_5 + y_F_3_2_5 <= 1
F_AntiLeak_2_3_3_0_1: - E_3_0_1 + E_4_0_1 + y_F_3_3_0 <= 1
F_AntiLeak_2_3_3_0_2: - E_3_0_2 + E_4_0_2 + y_F_3_3_0 <= 1
F_AntiLeak_2_3_3_0_4: - E_3_0_4 + E_4_0_4 + y_F_3_3_0 <= 1
F_AntiLeak_2_3_3_0_5: - E_3_0_5 + E_4_0_5 + y_F_3_3_0 <= 1
F_AntiLeak_2_3_3_1_0: - E_3_0_1 + E_4_0_1 + y_F_3_3_1 <= 1
F_AntiLeak_2_3_3_1_2: - E_3_1_2 + E_4_1_2 + y_F_3_3_1 <= 1
F_AntiLeak_2_3_3_1_4: - E_3_1_4 + E_4_1_4 + y_F_3_3_1 <= 1
F_AntiLeak_2_3_3_1_5: - E_3_1_5 + E_4_1_5 + y_F_3_3_1 <= 1
F_AntiLeak_2_3_3_2_0: - E_3_0_2 + E_4_0_2 + y_F_3_3_2 <= 1
F_AntiLeak_2_3_3_2_1: - E_3_1_2 + E_4_1_2 + y_F_3_3_2 <= 1
F_AntiLeak_2_3_3_2_4: - E_3_2_4 + E_4_2_4 + y_F_3_3_2 <= 1
F_AntiLeak_2_3_3_2_5: - E_3_2_5 + E_4_2_5 + y_F_3_3_2 <= 1
F_AntiLeak_2_3_3_4_0: - E_3_0_4 + E_4_0_4 + y_F_3_3_4 <= 1
F_AntiLeak_2_3_3_4_1: - E_3_1_4 + E_4_1_4 + y_F_3_3_4 <= 1
F_AntiLeak_2_3_3_4_2: - E_3_2_4 + E_4_2_4 + y_F_3_3_4 <= 1
F_AntiLeak_2_3_3_4_5: - E_3_4_5 + E_4_4_5 + y_F_3_3_4 <= 1
F_AntiLeak_2_3_3_5_0: - E_3_0_5 + E_4_0_5 + y_F_3_3_5 <= 1
F_AntiLeak_2_3_3_5_1: - E_3_1_5 + E_4_1_5 + y_F_3_3_5 <= 1
F_AntiLeak_2_3_3_5_2: - E_3_2_5 + E_4_2_5 + y_F_3_3_5 <= 1
F_AntiLeak_2_3_3_5_4: - E_3_4_5 + E_4_4_5 + y_F_3_3_5 <= 1
F_AntiLeak_2_3_4_0_1: - E_3_0_1 + E_4_0_1 + y_F_3_4_0 <= 1
F_AntiLeak_2_3_4_0_2: - E_3_0_2 + E_4_0_2 + y_F_3_4_0 <= 1
F_AntiLeak_2_3_4_0_3: - E_3_0_3 + E_4_0_3 + y_F_3_4_0 <= 1
F_AntiLeak_2_3_4_0_5: - E_3_0_5 + E_4_0_5 + y_F_3_4_0 <= 1
F_AntiLeak_2_3_4_1_0: - E_3_0_1 + E_4_0_1 + y_F_3_4_1 <= 1
F_AntiLeak_2_3_4_1_2: - E_3_1_2 + E_4_1_2 + y_F_3_4_1 <= 1
F_AntiLeak_2_3_4_1_3: - E_3_1_3 + E_4_1_3 + y_F_3_4_1 <= 1
F_AntiLeak_2_3_4_1_5: - E_3_1_5 + E_4_1_5 + y_F_3_4_1 <= 1
F_AntiLeak_2_3_4_2_0: - E_3_0_2 + E_4_0_2 + y_F_3_4_2 <= 1
F_AntiLeak_2_3_4_2_1: - E_3_1_2 + E_4_1_2 + y_F_3_4_2 <= 1
F_AntiLeak_2_3_4_2_3: - E_3_2_3 + E_4_2_3 + y_F_3_4_2 <= 1
F_AntiLeak_2_3_4_2_5: - E_3_2_5 + E_4_2_5 + y_F_3_4_2 <= 1
F_AntiLeak_2_3_4_3_0: - E_3_0_3 + E_4_0_3 + y_F_3_4_3 <= 1
F_AntiLeak_2_3_4_3_1: - E_3_1_3 + E_4_1_3 + y_F_3_4_3 <= 1
F_AntiLeak_2_3_4_3_2: - E_3_2_3 + E_4_2_3 + y_F_3_4_3 <= 1
F_AntiLeak_2_3_4_3_5: - E_3_3_5 + E_4_3_5 + y_F_3_4_3 <= 1
F_AntiLeak_2_3_4_5_0: - E_3_0_5 + E_4_0_5 + y_F_3_4_5 <= 1
F_AntiLeak_2_3_4_5_1: - E_3_1_5 + E_4_1_5 + y_F_3_4_5 <= 1
F_AntiLeak_2_3_4_5_2: - E_3_2_5 + E_4_2_5 + y_F_3_4_5 <= 1
F_AntiLeak_2_3_4_5_3: - E_3_3_5 + E_4_3_5 + y_F_3_4_5 <= 1
F_AntiLeak_2_3_5_0_1: - E_3_0_1 + E_4_0_1 + y_F_3_5_0 <= 1
F_AntiLeak_2_3_5_0_2: - E_3_0_2 + E_4_0_2 + y_F_3_5_0 <= 1
F_AntiLeak_2_3_5_0_3: - E_3_0_3 + E_4_0_3 + y_F_3_5_0 <= 1
F_AntiLeak_2_3_5_0_4: - E_3_0_4 + E_4_0_4 + y_F_3_5_0 <= 1
F_AntiLeak_2_3_5_1_0: - E_3_0_1 + E_4_0_1 + y_F_3_5_1 <= 1
F_AntiLeak_2_3_5_1_2: - E_3_1_2 + E_4_1_2 + y_F_3_5_1 <= 1
F_AntiLeak_2_3_5_1_3: - E_3_1_3 + E_4_1_3 + y_F_3_5_1 <= 1
F_AntiLeak_2_3_5_1_4: - E_3_1_4 + E_4_1_4 + y_F_3_5_1 <= 1
F_AntiLeak_2_3_5_2_0: - E_3_0_2 + E_4_0_2 + y_F_3_5_2 <= 1
F_AntiLeak_2_3_5_2_1: - E_3_1_2 + E_4_1_2 + y_F_3_5_2 <= 1
F_AntiLeak_2_3_5_2_3: - E_3_2_3 + E_4_2_3 + y_F_3_5_2 <= 1
F_AntiLeak_2_3_5_2_4: - E_3_2_4 + E_4_2_4 + y_F_3_5_2 <= 1
F_AntiLeak_2_3_5_3_0: - E_3_0_3 + E_4_0_3 + y_F_3_5_3 <= 1
F_AntiLeak_2_3_5_3_1: - E_3_1_3 + E_4_1_3 + y_F_3_5_3 <= 1
F_AntiLeak_2_3_5_3_2: - E_3_2_3 + E_4_2_3 + y_F_3_5_3 <= 1
F_AntiLeak_2_3_5_3_4: - E_3_3_4 + E_4_3_4 + y_F_3_5_3 <= 1
F_AntiLeak_2_3_5_4_0: - E_3_0_4 + E_4_0_4 + y_F_3_5_4 <= 1
F_AntiLeak_2_3_5_4_1: - E_3_1_4 + E_4_1_4 + y_F_3_5_4 <= 1
F_AntiLeak_2_3_5_4_2: - E_3_2_4 + E_4_2_4 + y_F_3_5_4 <= 1
F_AntiLeak_2_3_5_4_3: - E_3_3_4 + E_4_3_4 + y_F_3_5_4 <= 1
F_Ek1_0_0_1_2: - E_0_1_2 + E_1_0_2 - y_F_0_0_1 >= -1
F_Ek1_0_0_1_3: - E_0_1_3 + E_1_0_3 - y_F_0_0_1 >= -1
F_Ek1_0_0_1_4: - E_0_1_4 + E_1_0_4 - y_F_0_0_1 >= -1
F_Ek1_0_0_1_5: - E_0_1_5 + E_1_0_5 - y_F_0_0_1 >= -1
F_Ek1_0_0_2_1: - E_0_1_2 + E_1_0_1 - y_F_0_0_2 >= -1
F_Ek1_0_0_2_3: - E_0_2_3 + E_1_0_3 - y_F_0_0_2 >= -1
F_Ek1_0_0_2_4: - E_0_2_4 + E_1_0_4 - y_F_0_0_2 >= -1
F_Ek1_0_0_2_5: - E_0_2_5 + E_1_0_5 - y_F_0_0_2 >= -1
F_Ek1_0_0_3_1: - E_0_1_3 + E_1_0_1 - y_F_0_0_3 >= -1
F_Ek1_0_0_3_2: - E_0_2_3 + E_1_0_2 - y_F_0_0_3 >= -1
F_Ek1_0_0_3_4: - E_0_3_4 + E_1_0_4 - y_F_0_0_3 >= -1
F_Ek1_0_0_3_5: - E_0_3_5 + E_1_0_5 - y_F_0_0_3 >= -1
F_Ek1_0_0_4_1: - E_0_1_4 + E_1_0_1 - y_F_0_0_4 >= -1
F_Ek1_0_0_4_2: - E_0_2_4 + E_1_0_2 - y_F_0_0_4 >= -1
F_Ek1_0_0_4_3: - E_0_3_4 + E_1_0_3 - y_F_0_0_4 >= -1
F_Ek1_0_0_4_5: - E_0_4_5 + E_1_0_5 - y_F_0_0_4 >= -1
F_Ek1_0_0_5_1: - E_0_1_5 + E_1_0_1 - y_F_0_0_5 >= -1
F_Ek1_0_0_5_2: - E_0_2_5 + E_1_0_2 - y_F_0_0_5 >= -1
F_Ek1_0_0_5_3: - E_0_3_5 + E_1_0_3 - y_F_0_0_5 >= -1
F_Ek1_0_0_5_4: - E_0_4_5 + E_1_0_4 - y_F_0_0_5 >= -1
F_Ek1_0_1_0_2: - E_0_0_2 + E_1_1_2 - y_F_0_1_0 >= -1
F_Ek1_0_1_0_3: - E_0_0_3 + E_1_1_3 - y_F_0_1_0 >= -1
F_Ek1_0_1_0_4: - E_0_0_4 + E_1_1_4 - y_F_0_1_0 >= -1
F_Ek1_0_1_0_5: - E_0_0_5 + E_1_1_5 - y_F_0_1_0 >= -1
F_Ek1_0_1_2_0: - E_0_0_2 + E_1_0_1 - y_F_0_1_2 >= -1
F_Ek1_0_1_2_3: - E_0_2_3 + E_1_1_3 - y_F_0_1_2 >= -1
F_Ek1_0_1_2_4: - E_0_2_4 + E_1_1_4 - y_F_0_1_2 >= -1
F_Ek1_0_1_2_5: - E_0_2_5 + E_1_1_5 - y_F_0_1_2 >= -1
F_Ek1_0_1_3_0: - E_0_0_3 + E_1_0_1 - y_F_0_1_3 >= -1
F_Ek1_0_1_3_2: - E_0_2_3 + E_1_1_2 - y_F_0_1_3 >= -1
F_Ek1_0_1_3_4: - E_0_3_4 + E_1_1_4 - y_F_0_1_3 >= -1
F_Ek1_0_1_3_5: - E_0_3_5 + E_1_1_5 - y_F_0_1_3 >= -1
F_Ek1_0_1_4_0: - E_0_0_4 + E_1_0_1 - y_F_0_1_4 >= -1
F_Ek1_0_1_4_2: - E_0_2_4 + E_1_1_2 - y_F_0_1_4 >= -1
F_Ek1_0_1_4_3: - E_0_3_4 + E_1_1_3 - y_F_0_1_4 >= -1
F_Ek1_0_1_4_5: - E_0_4_5 + E_1_1_5 - y_F_0_1_4 >= -1
F_Ek1_0_1_5_0: - E_0_0_5 + E_1_0_1 - y_F_0_1_5 >= -1
F_Ek1_0_1_5_2: - E_0_2_5 + E_1_1_2 - y_F_0_1_5 >= -1
F_Ek1_0_1_5_3: - E_0_3_5 + E_1_1_3 - y_F_0_1_5 >= -1
F_Ek1_0_1_5_4: - E_0_4_5 + E_1_1_4 - y_F_0_1_5 >= -1
F_Ek1_0_2_0_1: - E_0_0_1 + E_1_1_2 - y_F_0_2_0 >= -1
F_Ek1_0_2_0_3: - E_0_0_3 + E_1_2_3 - y_F_0_2_0 >= -1
F_Ek1_0_2_0_4: - E_0_0_4 + E_1_2_4 - y_F_0_2_0 >= -1
F_Ek1_0_2_0_5: - E_0_0_5 + E_1_2_5 - y_F_0_2_0 >= -1
F_Ek1_0_2_1_0: - E_0_0_1 + E_1_0_2 - y_F_0_2_1 >= -1
F_Ek1_0_2_1_3: - E_0_1_3 + E_1_2_3 - y_F_0_2_1 >= -1
F_Ek1_0_2_1_4: - E_0_1_4 + E_1_2_4 - y_F_0_2_1 >= -1
F_Ek1_0_2_1_5: - E_0_1_5 + E_1_2_5 - y_F_0_2_1 >= -1
F_Ek1_0_2_3_0: - E_0_0_3 + E_1_0_2 - y_F_0_2_3 >= -1
F_Ek1_0_2_3_1: - E_0_1_3 + E_1_1_2 - y_F_0_2_3 >= -1
F_Ek1_0_2_3_4: - E_0_3_4 + E_1_2_4 - y_F_0_2_3 >= -1
F_Ek1_0_2_3_5: - E_0_3_5 + E_1_2_5 - y_F_0_2_3 >= -1
F_Ek1_0_2_4_0: - E_0_0_4 + E_1_0_2 - y_F_0_2_4 >= -1
F_Ek1_0_2_4_1: - E_0_1_4 + E_1_1_2 - y_F_0_2_4 >= -1
F_Ek1_0_2_4_3: - E_0_3_4 + E_1_2_3 - y_F_0_2_4 >= -1
F_Ek1_0_2_4_5: - E_0_4_5 + E_1_2_5 - y_F_0_2_4 >= -1
F_Ek1_0_2_5_0: - E_0_0_5 + E_1_0_2 - y_F_0_2_5 >= -1
F_Ek1_0_2_5_1: - E_0_1_5 + E_1_1_2 - y_F_0_2_5 >= -1
F_Ek1_0_2_5_3: - E_0_3_5 + E_1_2_3 - y_F_0_2_5 >= -1
F_Ek1_0_2_5_4: - E_0_4_5 + E_1_2_4 - y_F_0_2_5 >= -1
F_Ek1_0_3_0_1: - E_0_0_1 + E_1_1_3 - y_F_0_3_0 >= -1
F_Ek1_0_3_0_2: - E_0_0_2 + E_1_2_3 - y_F_0_3_0 >= -1
F_Ek1_0_3_0_4: - E_0_0_4 + E_1_3_4 - y_F_0_3_0 >= -1
F_Ek1_0_3_0_5: - E_0_0_5 + E_1_3_5 - y_F_0_3_0 >= -1
F_Ek1_0_3_1_0: - E_0_0_1 + E_1_0_3 - y_F_0_3_1 >= -1
F_Ek1_0_3_1_2: - E_0_1_2 + E_1_2_3 - y_F_0_3_1 >= -1
F_Ek1_0_3_1_4: - E_0_1_4 + E_1_3_4 - y_F_0_3_1 >= -1
F_Ek1_0_3_1_5: - E_0_1_5 + E_1_3_5 - y_F_0_3_1 >= -1
F_Ek1_0_3_2_0: - E_0_0_2 + E_1_0_3 - y_F_0_3_2 >= -1
F_Ek1_0_3_2_1: - E_0_1_2 + E_1_1_3 - y_F_0_3_2 >= -1
F_Ek1_0_3_2_4: - E_0_2_4 + E_1_3_4 - y_F_0_3_2 >= -1
F_Ek1_0_3_2_5: - E_0_2_5 + E_1_3_5 - y_F_0_3_2 >= -1
F_Ek1_0_3_4_0: - E_0_0_4 + E_1_0_3 - y_F_0_3_4 >= -1
F_Ek1_0_3_4_1: - E_0_1_4 + E_1_1_3 - y_F_0_3_4 >= -1
F_Ek1_0_3_4_2: - E_0_2_4 + E_1_2_3 - y_F_0_3_4 >= -1
F_Ek1_0_3_4_5: - E_0_4_5 + E_1_3_5 - y_F_0_3_4 >= -1
F_Ek1_0_3_5_0: - E_0_0_5 + E_1_0_3 - y_F_0_3_5 >= -1
F_Ek1_0_3_5_1: - E_0_1_5 + E_1_1_3 - y_F_0_3_5 >= -1
F_Ek1_0_3_5_2: - E_0_2_5 + E_1_2_3 - y_F_0_3_5 >= -1
F_Ek1_0_3_5_4: - E_0_4_5 + E_1_3_4 - y_F_0_3_5 >= -1
F_Ek1_0_4_0_1: - E_0_0_1 + E_1_1_4 - y_F_0_4_0 >= -1
F_Ek1_0_4_0_2: - E_0_0_2 + E_1_2_4 - y_F_0_4_0 >= -1
F_Ek1_0_4_0_3: - E_0_0_3 + E_1_3_4 - y_F_0_4_0 >= -1
F_Ek1_0_4_0_5: - E_0_0_5 + E_1_4_5 - y_F_0_4_0 >= -1
F_Ek1_0_4_1_0: - E_0_0_1 + E_1_0_4 - y_F_0_4_1 >= -1
F_Ek1_0_4_1_2: - E_0_1_2 + E_1_2_4 - y_F_0_4_1 >= -1
F_Ek1_0_4_1_3: - E_0_1_3 + E_1_3_4 - y_F_0_4_1 >= -1
F_Ek1_0_4_1_5: - E_0_1_5 + E_1_4_5 - y_F_0_4_1 >= -1
F_Ek1_0_4_2_0: - E_0_0_2 + E_1_0_4 - y_F_0_4_2 >= -1
F_Ek1_0_4_2_1: - E_0_1_2 + E_1_1_4 - y_F_0_4_2 >= -1
F_Ek1_0_4_2_3: - E_0_2_3 + E_1_3_4 - y_F_0_4_2 >= -1
F_Ek1_0_4_2_5: - E_0_2_5 + E_1_4_5 - y_F_0_4_2 >= -1
F_Ek1_0_4_3_0: - E_0_0_3 + E_1_0_4 - y_F_0_4_3 >= -1
F_Ek1_0_4_3_1: - E_0_1_3 + E_1_1_4 - y_F_0_4_3 >= -1
F_Ek1_0_4_3_2: - E_0_2_3 + E_1_2_4 - y_F_0_4_3 >= -1
F_Ek1_0_4_3_5: - E_0_3_5 + E_1_4_5 - y_F_0_4_3 >= -1
F_Ek1_0_4_5_0: - E_0_0_5 + E_1_0_4 - y_F_0_4_5 >= -1
F_Ek1_0_4_5_1: - E_0_1_5 + E_1_1_4 - y_F_0_4_5 >= -1
F_Ek1_0_4_5_2: - E_0_2_5 + E_1_2_4 - y_F_0_4_5 >= -1
F_Ek1_0_4_5_3: - E_0_3_5 + E_1_3_4 - y_F_0_4_5 >= -1
F_Ek1_0_5_0_1: - E_0_0_1 + E_1_1_5 - y_F_0_5_0 >= -1
F_Ek1_0_5_0_2: - E_0_0_2 + E_1_2_5 - y_F_0_5_0 >= -1
F_Ek1_0_5_0_3: - E_0_0_3 + E_1_3_5 - y_F_0_5_0 >= -1
F_Ek1_0_5_0_4: - E_0_0_4 + E_1_4_5 - y_F_0_5_0 >= -1
F_Ek1_0_5_1_0: - E_0_0_1 + E_1_0_5 - y_F_0_5_1 >= -1
F_Ek1_0_5_1_2: - E_0_1_2 + E_1_2_5 - y_F_0_5_1 >= -1
F_Ek1_0_5_1_3: - E_0_1_3 + E_1_3_5 - y_F_0_5_1 >= -1
F_Ek1_0_5_1_4: - E_0_1_4 + E_1_4_5 - y_F_0_5_1 >= -1
F_Ek1_0_5_2_0: - E_0_0_2 + E_1_0_5 - y_F_0_5_2 >= -1
F_Ek1_0_5_2_1: - E_0_1_2 + E_1_1_5 - y_F_0_5_2 >= -1
F_Ek1_0_5_2_3: - E_0_2_3 + E_1_3_5 - y_F_0_5_2 >= -1
F_Ek1_0_5_2_4: - E_0_2_4 + E_1_4_5 - y_F_0_5_2 >= -1
F_Ek1_0_5_3_0: - E_0_0_3 + E_1_0_5 - y_F_0_5_3 >= -1
F_Ek1_0_5_3_1: - E_0_1_3 + E_1_1_5 - y_F_0_5_3 >= -1
F_Ek1_0_5_3_2: - E_0_2_3 + E_1_2_5 - y_F_0_5_3 >= -1
F_Ek1_0_5_3_4: - E_0_3_4 + E_1_4_5 - y_F_0_5_3 >= -1
F_Ek1_0_5_4_0: - E_0_0_4 + E_1_0_5 - y_F_0_5_4 >= -1
F_Ek1_0_5_4_1: - E_0_1_4 + E_1_1_5 - y_F_0_5_4 >= -1
F_Ek1_0_5_4_2: - E_0_2_4 + E_1_2_5 - y_F_0_5_4 >= -1
F_Ek1_0_5_4_3: - E_0_3_4 + E_1_3_5 - y_F_0_5_4 >= -1
F_Ek1_1_0_1_2: - E_1_1_2 + E_2_0_2 - y_F_1_0_1 >= -1
F_Ek1_1_0_1_3: - E_1_1_3 + E_2_0_3 - y_F_1_0_1 >= -1
F_Ek1_1_0_1_4: - E_1_1_4 + E_2_0_4 - y_F_1_0_1 >= -1
F_Ek1_1_0_1_5: - E_1_1_5 + E_2_0_5 - y_F_1_0_1 >= -1
F_Ek1_1_0_2_1: - E_1_1_2 + E_2_0_1 - y_F_1_0_2 >= -1
F_Ek1_1_0_2_3: - E_1_2_3 + E_2_0_3 - y_F_1_0_2 >= -1
F_Ek1_1_0_2_4: - E_1_2_4 + E_2_0_4 - y_F_1_0_2 >= -1
F_Ek1_1_0_2_5: - E_1_2_5 + E_2_0_5 - y_F_1_0_2 >= -1
F_Ek1_1_0_3_1: - E_1_1_3 + E_2_0_1 - y_F_1_0_3 >= -1
F_Ek1_1_0_3_2: - E_1_2_3 + E_2_0_2 - y_F_1_0_3 >= -1
F_Ek1_1_0_3_4: - E_1_3_4 + E_2_0_4 - y_F_1_0_3 >= -1
F_Ek1_1_0_3_5: - E_1_3_5 + E_2_0_5 - y_F_1_0_3 >= -1
F_Ek1_1_0_4_1: - E_1_1_4 + E_2_0_1 - y_F_1_0_4 >= -1
F_Ek1_1_0_4_2: - E_1_2_4 + E_2_0_2 - y_F_1_0_4 >= -1
F_Ek1_1_0_4_3: - E_1_3_4 + E_2_0_3 - y_F_1_0_4 >= -1
F_Ek1_1_0_4_5: - E_1_4_5 + E_2_0_5 - y_F_1_0_4 >= -1
F_Ek1_1_0_5_1: - E_1_1_5 + E_2_0_1 - y_F_1_0_5 >= -1
F_Ek1_1_0_5_2: - E_1_2_5 + E_2_0_2 - y_F_1_0_5 >= -1
F_Ek1_1_0_5_3: - E_1_3_5 + E_2_0_3 - y_F_1_0_5 >= -1
F_Ek1_1_0_5_4: - E_1_4_5 + E_2_0_4 - y_F_1_0_5 >= -1
F_Ek1_1_1_0_2: - E_1_0_2 + E_2_1_2 - y_F_1_1_0 >= -1
F_Ek1_1_1_0_3: - E_1_0_3 + E_2_1_3 - y_F_1_1_0 >= -1
F_Ek1_1_1_0_4: - E_1_0_4 + E_2_1_4 - y_F_1_1_0 >= -1
F_Ek1_1_1_0_5: - E_1_0_5 + E_2_1_5 - y_F_1_1_0 >= -1
F_Ek1_1_1_2_0: - E_1_0_2 + E_2_0_1 - y_F_1_1_2 >= -1
F_Ek1_1_1_2_3: - E_1_2_3 + E_2_1_3 - y_F_1_1_2 >= -1
F_Ek1_1_1_2_4: - E_1_2_4 + E_2_1_4 - y_F_1_1_2 >= -1
F_Ek1_1_1_2_5: - E_1_2_5 + E_2_1_5 - y_F_1_1_2 >= -1
F_Ek1_1_1_3_0: - E_1_0_3 + E_2_0_1 - y_F_1_1_3 >= -1
F_Ek1_1_1_3_2: - E_1_2_3 + E_2_1_2 - y_F_1_1_3 >= -1
F_Ek1_1_1_3_4: - E_1_3_4 + E_2_1_4 - y_F_1_1_3 >= -1
F_Ek1_1_1_3_5: - E_1_3_5 + E_2_1_5 - y_F_1_1_3 >= -1
F_Ek1_1_1_4_0: - E_1_0_4 + E_2_0_1 - y_F_1_1_4 >= -1
F_Ek1_1_1_4_2: - E_1_2_4 + E_2_1_2 - y_F_1_1_4 >= -1
F_Ek1_1_1_4_3: - E_1_3_4 + E_2_1_3 - y_F_1_1_4 >= -1
F_Ek1_1_1_4_5: - E_1_4_5 + E_2_1_5 - y_F_1_1_4 >= -1
F_Ek1_1_1_5_0: - E_1_0_5 + E_2_0_1 - y_F_1_1_5 >= -1
F_Ek1_1_1_5_2: - E_1_2_5 + E_2_1_2 - y_F_1_1_5 >= -1
F_Ek1_1_1_5_3: - E_1_3_5 + E_2_1_3 - y_F_1_1_5 >= -1
F_Ek1_1_1_5_4: - E_1_4_5 + E_2_1_4 - y_F_1_1_5 >= -1
F_Ek1_1_2_0_1: - E_1_0_1 + E_2_1_2 - y_F_1_2_0 >= -1
F_Ek1_1_2_0_3: - E_1_0_3 + E_2_2_3 - y_F_1_2_0 >= -1
F_Ek1_1_2_0_4: - E_1_0_4 + E_2_2_4 - y_F_1_2_0 >= -1
F_Ek1_1_2_0_5: - E_1_0_5 + E_2_2_5 - y_F_1_2_0 >= -1
F_Ek1_1_2_1_0: - E_1_0_1 + E_2_0_2 - y_F_1_2_1 >= -1
F_Ek1_1_2_1_3: - E_1_1_3 + E_2_2_3 - y_F_1_2_1 >= -1
F_Ek1_1_2_1_4: - E_1_1_4 + E_2_2_4 - y_F_1_2_1 >= -1
F_Ek1_1_2_1_5: - E_1_1_5 + E_2_2_5 - y_F_1_2_1 >= -1
F_Ek1_1_2_3_0: - E_1_0_3 + E_2_0_2 - y_F_1_2_3 >= -1
F_Ek1_1_2_3_1: - E_1_1_3 + E_2_1_2 - y_F_1_2_3 >= -1
F_Ek1_1_2_3_4: - E_1_3_4 + E_2_2_4 - y_F_1_2_3 >= -1
F_Ek1_1_2_3_5: - E_1_3_5 + E_2_2_5 - y_F_1_2_3 >= -1
F_Ek1_1_2_4_0: - E_1_0_4 + E_2_0_2 - y_F_1_2_4 >= -1
F_Ek1_1_2_4_1: - E_1_1_4 + E_2_1_2 - y_F_1_2_4 >= -1
F_Ek1_1_2_4_3: - E_1_3_4 + E_2_2_3 - y_F_1_2_4 >= -1
F_Ek1_1_2_4_5: - E_1_4_5 + E_2_2_5 - y_F_1_2_4 >= -1
F_Ek1_1_2_5_0: - E_1_0_5 + E_2_0_2 - y_F_1_2_5 >= -1
F_Ek1_1_2_5_1: - E_1_1_5 + E_2_1_2 - y_F_1_2_5 >= -1
F_Ek1_1_2_5_3: - E_1_3_5 + E_2_2_3 - y_F_1_2_5 >= -1
F_Ek1_1_2_5_4: - E_1_4_5 + E_2_2_4 - y_F_1_2_5 >= -1
F_Ek1_1_3_0_1: - E_1_0_1 + E_2_1_3 - y_F_1_3_0 >= -1
F_Ek1_1_3_0_2: - E_1_0_2 + E_2_2_3 - y_F_1_3_0 >= -1
F_Ek1_1_3_0_4: - E_1_0_4 + E_2_3_4 - y_F_1_3_0 >= -1
F_Ek1_1_3_0_5: - E_1_0_5 + E_2_3_5 - y_F_1_3_0 >= -1
F_Ek1_1_3_1_0: - E_1_0_1 + E_2_0_3 - y_F_1_3_1 >= -1
F_Ek1_1_3_1_2: - E_1_1_2 + E_2_2_3 - y_F_1_3_1 >= -1
F_Ek1_1_3_1_4: - E_1_1_4 + E_2_3_4 - y_F_1_3_1 >= -1
F_Ek1_1_3_1_5: - E_1_1_5 + E_2_3_5 - y_F_1_3_1 >= -1
F_Ek1_1_3_2_0: - E_1_0_2 + E_2_0_3 - y_F_1_3_2 >= -1
F_Ek1_1_3_2_1: - E_1_1_2 + E_2_1_3 - y_F_1_3_2 >= -1
F_Ek1_1_3_2_4: - E_1_2_4 + E_2_3_4 - y_F_1_3_2 >= -1
F_Ek1_1_3_2_5: - E_1_2_5 + E_2_3_5 - y_F_1_3_2 >= -1
F_Ek1_1_3_4_0: - E_1_0_4 + E_2_0_3 - y_F_1_3_4 >= -1
F_Ek1_1_3_4_1: - E_1_1_4 + E_2_1_3 - y_F_1_3_4 >= -1
F_Ek1_1_3_4_2: - E_1_2_4 + E_2_2_3 - y_F_1_3_4 >= -1
F_Ek1_1_3_4_5: - E_1_4_5 + E_2_3_5 - y_F_1_3_4 >= -1
F_Ek1_1_3_5_0: - E_1_0_5 + E_2_0_3 - y_F_1_3_5 >= -1
F_Ek1_1_3_5_1: - E_1_1_5 + E_2_1_3 - y_F_1_3_5 >= -1
F_Ek1_1_3_5_2: - E_1_2_5 + E_2_2_3 - y_F_1_3_5 >= -1
F_Ek1_1_3_5_4: - E_1_4_5 + E_2_3_4 - y_F_1_3_5 >= -1
F_Ek1_1_4_0_1: - E_1_0_1 + E_2_1_4 - y_F_1_4_0 >= -1
F_Ek1_1_4_0_2: - E_1_0_2 + E_2_2_4 - y_F_1_4_0 >= -1
F_Ek1_1_4_0_3: - E_1_0_3 + E_2_3_4 - y_F_1_4_0 >= -1
F_Ek1_1_4_0_5: - E_1_0_5 + E_2_4_5 - y_F_1_4_0 >= -1
F_Ek1_1_4_1_0: - E_1_0_1 + E_2_0_4 - y_F_1_4_1 >= -1
F_Ek1_1_4_1_2: - E_1_1_2 + E_2_2_4 - y_F_1_4_1 >= -1
F_Ek1_1_4_1_3: - E_1_1_3 + E_2_3_4 - y_F_1_4_1 >= -1
F_Ek1_1_4_1_5: - E_1_1_5 + E_2_4_5 - y_F_1_4_1 >= -1
F_Ek1_1_4_2_0: - E_1_0_2 + E_2_0_4 - y_F_1_4_2 >= -1
F_Ek1_1_4_2_1: - E_1_1_2 + E_2_1_4 - y_F_1_4_2 >= -1
F_Ek1_1_4_2_3: - E_1_2_3 + E_2_3_4 - y_F_1_4_2 >= -1
F_Ek1_1_4_2_5: - E_1_2_5 + E_2_4_5 - y_F_1_4_2 >= -1
F_Ek1_1_4_3_0: - E_1_0_3 + E_2_0_4 - y_F_1_4_3 >= -1
F_Ek1_1_4_3_1: - E_1_1_3 + E_2_1_4 - y_F_1_4_3 >= -1
F_Ek1_1_4_3_2: - E_1_2_3 + E_2_2_4 - y_F_1_4_3 >= -1
F_Ek1_1_4_3_5: - E_1_3_5 + E_2_4_5 - y_F_1_4_3 >= -1
F_Ek1_1_4_5_0: - E_1_0_5 + E_2_0_4 - y_F_1_4_5 >= -1
F_Ek1_1_4_5_1: - E_1_1_5 + E_2_1_4 - y_F_1_4_5 >= -1
F_Ek1_1_4_5_2: - E_1_2_5 + E_2_2_4 - y_F_1_4_5 >= -1
F_Ek1_1_4_5_3: - E_1_3_5 + E_2_3_4 - y_F_1_4_5 >= -1
F_Ek1_1_5_0_1: - E_1_0_1 + E_2_1_5 - y_F_1_5_0 >= -1
F_Ek1_1_5_0_2: - E_1_0_2 + E_2_2_5 - y_F_1_5_0 >= -1
F_Ek1_1_5_0_3: - E_1_0_3 + E_2_3_5 - y_F_1_5_0 >= -1
F_Ek1_1_5_0_4: - E_1_0_4 + E_2_4_5 - y_F_1_5_0 >= -1
F_Ek1_1_5_1_0: - E_1_0_1 + E_2_0_5 - y_F_1_5_1 >= -1
F_Ek1_1_5_1_2: - E_1_1_2 + E_2_2_5 - y_F_1_5_1 >= -1
F_Ek1_1_5_1_3: - E_1_1_3 + E_2_3_5 - y_F_1_5_1 >= -1
F_Ek1_1_5_1_4: - E_1_1_4 + E_2_4_5 - y_F_1_5_1 >= -1
F_Ek1_1_5_2_0: - E_1_0_2 + E_2_0_5 - y_F_1_5_2 >= -1
F_Ek1_1_5_2_1: - E_1_1_2 + E_2_1_5 - y_F_1_5_2 >= -1
F_Ek1_1_5_2_3: - E_1_2_3 + E_2_3_5 - y_F_1_5_2 >= -1
F_Ek1_1_5_2_4: - E_1_2_4 + E_2_4_5 - y_F_1_5_2 >= -1
F_Ek1_1_5_3_0: - E_1_0_3 + E_2_0_5 - y_F_1_5_3 >= -1
F_Ek1_1_5_3_1: - E_1_1_3 + E_2_1_5 - y_F_1_5_3 >= -1
F_Ek1_1_5_3_2: - E_1_2_3 + E_2_2_5 - y_F_1_5_3 >= -1
F_Ek1_1_5_3_4: - E_1_3_4 + E_2_4_5 - y_F_1_5_3 >= -1
F_Ek1_1_5_4_0: - E_1_0_4 + E_2_0_5 - y_F_1_5_4 >= -1
F_Ek1_1_5_4_1: - E_1_1_4 + E_2_1_5 - y_F_1_5_4 >= -1
F_Ek1_1_5_4_2: - E_1_2_4 + E_2_2_5 - y_F_1_5_4 >= -1
F_Ek1_1_5_4_3: - E_1_3_4 + E_2_3_5 - y_F_1_5_4 >= -1
F_Ek1_2_0_1_2: - E_2_1_2 + E_3_0_2 - y_F_2_0_1 >= -1
F_Ek1_2_0_1_3: - E_2_1_3 + E_3_0_3 - y_F_2_0_1 >= -1
F_Ek1_2_0_1_4: - E_2_1_4 + E_3_0_4 - y_F_2_0_1 >= -1
F_Ek1_2_0_1_5: - E_2_1_5 + E_3_0_5 - y_F_2_0_1 >= -1
F_Ek1_2_0_2_1: - E_2_1_2 + E_3_0_1 - y_F_2_0_2 >= -1
F_Ek1_2_0_2_3: - E_2_2_3 + E_3_0_3 - y_F_2_0_2 >= -1
F_Ek1_2_0_2_4: - E_2_2_4 + E_3_0_4 - y_F_2_0_2 >= -1
F_Ek1_2_0_2_5: - E_2_2_5 + E_3_0_5 - y_F_2_0_2 >= -1
F_Ek1_2_0_3_1: - E_2_1_3 + E_3_0_1 - y_F_2_0_3 >= -1
F_Ek1_2_0_3_2: - E_2_2_3 + E_3_0_2 - y_F_2_0_3 >= -1
F_Ek1_2_0_3_4: - E_2_3_4 + E_3_0_4 - y_F_2_0_3 >= -1
F_Ek1_2_0_3_5: - E_2_3_5 + E_3_0_5 - y_F_2_0_3 >= -1
F_Ek1_2_0_4_1: - E_2_1_4 + E_3_0_1 - y_F_2_0_4 >= -1
F_Ek1_2_0_4_2: - E_2_2_4 + E_3_0_2 - y_F_2_0_4 >= -1
F_Ek1_2_0_4_3: - E_2_3_4 + E_3_0_3 - y_F_2_0_4 >= -1
F_Ek1_2_0_4_5: - E_2_4_5 + E_3_0_5 - y_F_2_0_4 >= -1
F_Ek1_2_0_5_1: - E_2_1_5 + E_3_0_1 - y_F_2_0_5 >= -1
F_Ek1_2_0_5_2: - E_2_2_5 + E_3_0_2 - y_F_2_0_5 >= -1
F_Ek1_2_0_5_3: - E_2_3_5 + E_3_0_3 - y_F_2_0_5 >= -1
F_Ek1_2_0_5_4: - E_2_4_5 + E_3_0_4 - y_F_2_0_5 >= -1
F_Ek1_2_1_0_2: - E_2_0_2 + E_3_1_2 - y_F_2_1_0 >= -1
F_Ek1_2_1_0_3: - E_2_0_3 + E_3_1_3 - y_F_2_1_0 >= -1
F_Ek1_2_1_0_4: - E_2_0_4 + E_3_1_4 - y_F_2_1_0 >= -1
F_Ek1_2_1_0_5: - E_2_0_5 + E_3_1_5 - y_F_2_1_0 >= -1
F_Ek1_2_1_2_0: - E_2_0_2 + E_3_0_1 - y_F_2_1_2 >= -1
F_Ek1_2_1_2_3: - E_2_2_3 + E_3_1_3 - y_F_2_1_2 >= -1
F_Ek1_2_1_2_4: - E_2_2_4 + E_3_1_4 - y_F_2_1_2 >= -1
F_Ek1_2_1_2_5: - E_2_2_5 + E_3_1_5 - y_F_2_1_2 >= -1
F_Ek1_2_1_3_0: - E_2_0_3 + E_3_0_1 - y_F_2_1_3 >= -1
F_Ek1_2_1_3_2: - E_2_2_3 + E_3_1_2 - y_F_2_1_3 >= -1
F_Ek1_2_1_3_4: - E_2_3_4 + E_3_1_4 - y_F_2_1_3 >= -1
F_Ek1_2_1_3_5: - E_2_3_5 + E_3_1_5 - y_F_2_1_3 >= -1
F_Ek1_2_1_4_0: - E_2_0_4 + E_3_0_1 - y_F_2_1_4 >= -1
F_Ek1_2_1_4_2: - E_2_2_4 + E_3_1_2 - y_F_2_1_4 >= -1
F_Ek1_2_1_4_3: - E_2_3_4 + E_3_1_3 - y_F_2_1_4 >= -1
F_Ek1_2_1_4_5: - E_2_4_5 + E_3_1_5 - y_F_2_1_4 >= -1
F_Ek1_2_1_5_0: - E_2_0_5 + E_3_0_1 - y_F_2_1_5 >= -1
F_Ek1_2_1_5_2: - E_2_2_5 + E_3_1_2 - y_F_2_1_5 >= -1
F_Ek1_2_1_5_3: - E_2_3_5 + E_3_1_3 - y_F_2_1_5 >= -1
F_Ek1_2_1_5_4: - E_2_4_5 + E_3_1_4 - y_F_2_1_5 >= -1
F_Ek1_2_2_0_1: - E_2_0_1 + E_3_1_2 - y_F_2_2_0 >= -1
F_Ek1_2_2_0_3: - E_2_0_3 + E_3_2_3 - y_F_2_2_0 >= -1
F_Ek1_2_2_0_4: - E_2_0_4 + E_3_2_4 - y_F_2_2_0 >= -1
F_Ek1_2_2_0_5: - E_2_0_5 + E_3_2_5 - y_F_2_2_0 >= -1
F_Ek1_2_2_1_0: - E_2_0_1 + E_3_0_2 - y_F_2_2_1 >= -1
F_Ek1_2_2_1_3: - E_2_1_3 + E_3_2_3 - y_F_2_2_1 >= -1
F_Ek1_2_2_1_4: - E_2_1_4 + E_3_2_4 - y_F_2_2_1 >= -1
F_Ek1_2_2_1_5: - E_2_1_5 + E_3_2_5 - y_F_2_2_1 >= -1
F_Ek1_2_2_3_0: - E_2_0_3 + E_3_0_2 - y_F_2_2_3 >= -1
F_Ek1_2_2_3_1: - E_2_1_3 + E_3_1_2 - y_F_2_2_3 >= -1
F_Ek1_2_2_3_4: - E_2_3_4 + E_3_2_4 - y_F_2_2_3 >= -1
F_Ek1_2_2_3_5: - E_2_3_5 + E_3_2_5 - y_F_2_2_3 >= -1
F_Ek1_2_2_4_0: - E_2_0_4 + E_3_0_2 - y_F_2_2_4 >= -1
F_Ek1_2_2_4_1: - E_2_1_4 + E_3_1_2 - y_F_2_2_4 >= -1
F_Ek1_2_2_4_3: - E_2_3_4 + E_3_2_3 - y_F_2_2_4 >= -1
F_Ek1_2_2_4_5: - E_2_4_5 + E_3_2_5 - y_F_2_2_4 >= -1
F_Ek1_2_2_5_0: - E_2_0_5 + E_3_0_2 - y_F_2_2_5 >= -1
F_Ek1_2_2_5_1: - E_2_1_5 + E_3_1_2 - y_F_2_2_5 >= -1
F_Ek1_2_2_5_3: - E_2_3_5 + E_3_2_3 - y_F_2_2_5 >= -1
F_Ek1_2_2_5_4: - E_2_4_5 + E_3_2_4 - y_F_2_2_5 >= -1
F_Ek1_2_3_0_1: - E_2_0_1 + E_3_1_3 - y_F_2_3_0 >= -1
F_Ek1_2_3_0_2: - E_2_0_2 + E_3_2_3 - y_F_2_3_0 >= -1
F_Ek1_2_3_0_4: - E_2_0_4 + E_3_3_4 - y_F_2_3_0 >= -1
F_Ek1_2_3_0_5: - E_2_0_5 + E_3_3_5 - y_F_2_3_0 >= -1
F_Ek1_2_3_1_0: - E_2_0_1 + E_3_0_3 - y_F_2_3_1 >= -1
F_Ek1_2_3_1_2: - E_2_1_2 + E_3_2_3 - y_F_2_3_1 >= -1
F_Ek1_2_3_1_4: - E_2_1_4 + E_3_3_4 - y_F_2_3_1 >= -1
F_Ek1_2_3_1_5: - E_2_1_5 + E_3_3_5 - y_F_2_3_1 >= -1
F_Ek1_2_3_2_0: - E_2_0_2 + E_3_0_3 - y_F_2_3_2 >= -1
F_Ek1_2_3_2_1: - E_2_1_2 + E_3_1_3 - y_F_2_3_2 >= -1
F_Ek1_2_3_2_4: - E_2_2_4 + E_3_3_4 - y_F_2_3_2 >= -1
F_Ek1_2_3_2_5: - E_2_2_5 + E_3_3_5 - y_F_2_3_2 >= -1
F_Ek1_2_3_4_0: - E_2_0_4 + E_3_0_3 - y_F_2_3_4 >= -1
F_Ek1_2_3_4_1: - E_2_1_4 + E_3_1_3 - y_F_2_3_4 >= -1
F_Ek1_2_3_4_2: - E_2_2_4 + E_3_2_3 - y_F_2_3_4 >= -1
F_Ek1_2_3_4_5: - E_2_4_5 + E_3_3_5 - y_F_2_3_4 >= -1
F_Ek1_2_3_5_0: - E_2_0_5 + E_3_0_3 - y_F_2_3_5 >= -1
F_Ek1_2_3_5_1: - E_2_1_5 + E_3_1_3 - y_F_2_3_5 >= -1
F_Ek1_2_3_5_2: - E_2_2_5 + E_3_2_3 - y_F_2_3_5 >= -1
F_Ek1_2_3_5_4: - E_2_4_5 + E_3_3_4 - y_F_2_3_5 >= -1
F_Ek1_2_4_0_1: - E_2_0_1 + E_3_1_4 - y_F_2_4_0 >= -1
F_Ek1_2_4_0_2: - E_2_0_2 + E_3_2_4 - y_F_2_4_0 >= -1
F_Ek1_2_4_0_3: - E_2_0_3 + E_3_3_4 - y_F_2_4_0 >= -1
F_Ek1_2_4_0_5: - E_2_0_5 + E_3_4_5 - y_F_2_4_0 >= -1
F_Ek1_2_4_1_0: - E_2_0_1 + E_3_0_4 - y_F_2_4_1 >= -1
F_Ek1_2_4_1_2: - E_2_1_2 + E_3_2_4 - y_F_2_4_1 >= -1
F_Ek1_2_4_1_3: - E_2_1_3 + E_3_3_4 - y_F_2_4_1 >= -1
F_Ek1_2_4_1_5: - E_2_1_5 + E_3_4_5 - y_F_2_4_1 >= -1
F_Ek1_2_4_2_0: - E_2_0_2 + E_3_0_4 - y_F_2_4_2 >= -1
F_Ek1_2_4_2_1: - E_2_1_2 + E_3_1_4 - y_F_2_4_2 >= -1
F_Ek1_2_4_2_3: - E_2_2_3 + E_3_3_4 - y_F_2_4_2 >= -1
F_Ek1_2_4_2_5: - E_2_2_5 + E_3_4_5 - y_F_2_4_2 >= -1
F_Ek1_2_4_3_0: - E_2_0_3 + E_3_0_4 - y_F_2_4_3 >= -1
F_Ek1_2_4_3_1: - E_2_1_3 + E_3_1_4 - y_F_2_4_3 >= -1
F_Ek1_2_4_3_2: - E_2_2_3 + E_3_2_4 - y_F_2_4_3 >= -1
F_Ek1_2_4_3_5: - E_2_3_5 + E_3_4_5 - y_F_2_4_3 >= -1
F_Ek1_2_4_5_0: - E_2_0_5 + E_3_0_4 - y_F_2_4_5 >= -1
F_Ek1_2_4_5_1: - E_2_1_5 + E_3_1_4 - y_F_2_4_5 >= -1
F_Ek1_2_4_5_2: - E_2_2_5 + E_3_2_4 - y_F_2_4_5 >= -1
F_Ek1_2_4_5_3: - E_2_3_5 + E_3_3_4 - y_F_2_4_5 >= -1
F_Ek1_2_5_0_1: - E_2_0_1 + E_3_1_5 - y_F_2_5_0 >= -1
F_Ek1_2_5_0_2: - E_2_0_2 + E_3_2_5 - y_F_2_5_0 >= -1
F_Ek1_2_5_0_3: - E_2_0_3 + E_3_3_5 - y_F_2_5_0 >= -1
F_Ek1_2_5_0_4: - E_2_0_4 + E_3_4_5 - y_F_2_5_0 >= -1
F_Ek1_2_5_1_0: - E_2_0_1 + E_3_0_5 - y_F_2_5_1 >= -1
F_Ek1_2_5_1_2: - E_2_1_2 + E_3_2_5 - y_F_2_5_1 >= -1
F_Ek1_2_5_1_3: - E_2_1_3 + E_3_3_5 - y_F_2_5_1 >= -1
F_Ek1_2_5_1_4: - E_2_1_4 + E_3_4_5 - y_F_2_5_1 >= -1
F_Ek1_2_5_2_0: - E_2_0_2 + E_3_0_5 - y_F_2_5_2 >= -1
F_Ek1_2_5_2_1: - E_2_1_2 + E_3_1_5 - y_F_2_5_2 >= -1
F_Ek1_2_5_2_3: - E_2_2_3 + E_3_3_5 - y_F_2_5_2 >= -1
F_Ek1_2_5_2_4: - E_2_2_4 + E_3_4_5 - y_F_2_5_2 >= -1
F_Ek1_2_5_3_0: - E_2_0_3 + E_3_0_5 - y_F_2_5_3 >= -1
F_Ek1_2_5_3_1: - E_2_1_3 + E_3_1_5 - y_F_2_5_3 >= -1
F_Ek1_2_5_3_2: - E_2_2_3 + E_3_2_5 - y_F_2_5_3 >= -1
F_Ek1_2_5_3_4: - E_2_3_4 + E_3_4_5 - y_F_2_5_3 >= -1
F_Ek1_2_5_4_0: - E_2_0_4 + E_3_0_5 - y_F_2_5_4 >= -1
F_Ek1_2_5_4_1: - E_2_1_4 + E_3_1_5 - y_F_2_5_4 >= -1
F_Ek1_2_5_4_2: - E_2_2_4 + E_3_2_5 - y_F_2_5_4 >= -1
F_Ek1_2_5_4_3: - E_2_3_4 + E_3_3_5 - y_F_2_5_4 >= -1
F_Ek1_3_0_1_2: - E_3_1_2 + E_4_0_2 - y_F_3_0_1 >= -1
F_Ek1_3_0_1_3: - E_3_1_3 + E_4_0_3 - y_F_3_0_1 >= -1
F_Ek1_3_0_1_4: - E_3_1_4 + E_4_0_4 - y_F_3_0_1 >= -1
F_Ek1_3_0_1_5: - E_3_1_5 + E_4_0_5 - y_F_3_0_1 >= -1
F_Ek1_3_0_2_1: - E_3_1_2 + E_4_0_1 - y_F_3_0_2 >= -1
F_Ek1_3_0_2_3: - E_3_2_3 + E_4_0_3 - y_F_3_0_2 >= -1
F_Ek1_3_0_2_4: - E_3_2_4 + E_4_0_4 - y_F_3_0_2 >= -1
F_Ek1_3_0_2_5: - E_3_2_5 + E_4_0_5 - y_F_3_0_2 >= -1
F_Ek1_3_0_3_1: - E_3_1_3 + E_4_0_1 - y_F_3_0_3 >= -1
F_Ek1_3_0_3_2: - E_3_2_3 + E_4_0_2 - y_F_3_0_3 >= -1
F_Ek1_3_0_3_4: - E_3_3_4 + E_4_0_4 - y_F_3_0_3 >= -1
F_Ek1_3_0_3_5: - E_3_3_5 + E_4_0_5 - y_F_3_0_3 >= -1
F_Ek1_3_0_4_1: - E_3_1_4 + E_4_0_1 - y_F_3_0_4 >= -1
F_Ek1_3_0_4_2: - E_3_2_4 + E_4_0_2 - y_F_3_0_4 >= -1
F_Ek1_3_0_4_3: - E_3_3_4 + E_4_0_3 - y_F_3_0_4 >= -1
F_Ek1_3_0_4_5: - E_3_4_5 + E_4_0_5 - y_F_3_0_4 >= -1
F_Ek1_3_0_5_1: - E_3_1_5 + E_4_0_1 - y_F_3_0_5 >= -1
F_Ek1_3_0_5_2: - E_3_2_5 + E_4_0_2 - y_F_3_0_5 >= -1
F_Ek1_3_0_5_3: - E_3_3_5 + E_4_0_3 - y_F_3_0_5 >= -1
F_Ek1_3_0_5_4: - E_3_4_5 + E_4_0_4 - y_F_3_0_5 >= -1
F_Ek1_3_1_0_2: - E_3_0_2 + E_4_1_2 - y_F_3_1_0 >= -1
F_Ek1_3_1_0_3: - E_3_0_3 + E_4_1_3 - y_F_3_1_0 >= -1
F_Ek1_3_1_0_4: - E_3_0_4 + E_4_1_4 - y_F_3_1_0 >= -1
F_Ek1_3_1_0_5: - E_3_0_5 + E_4_1_5 - y_F_3_1_0 >= -1
F_Ek1_3_1_2_0: - E_3_0_2 + E_4_0_1 - y_F_3_1_2 >= -1
F_Ek1_3_1_2_3: - E_3_2_3 + E_4_1_3 - y_F_3_1_2 >= -1
F_Ek1_3_1_2_4: - E_3_2_4 + E_4_1_4 - y_F_3_1_2 >= -1
F_Ek1_3_1_2_5: - E_3_2_5 + E_4_1_5 - y_F_3_1_2 >= -1
F_Ek1_3_1_3_0: - E_3_0_3 + E_4_0_1 - y_F_3_1_3 >= -1
F_Ek1_3_1_3_2: - E_3_2_3 + E_4_1_2 - y_F_3_1_3 >= -1
F_Ek1_3_1_3_4: - E_3_3_4 + E_4_1_4 - y_F_3_1_3 >= -1
F_Ek1_3_1_3_5: - E_3_3_5 + E_4_1_5 - y_F_3_1_3 >= -1
F_Ek1_3_1_4_0: - E_3_0_4 + E_4_0_1 - y_F_3_1_4 >= -1
F_Ek1_3_1_4_2: - E_3_2_4 + E_4_1_2 - y_F_3_1_4 >= -1
F_Ek1_3_1_4_3: - E_3_3_4 + E_4_1_3 - y_F_3_1_4 >= -1
F_Ek1_3_1_4_5: - E_3_4_5 + E_4_1_5 - y_F_3_1_4 >= -1
F_Ek1_3_1_5_0: - E_3_0_5 + E_4_0_1 - y_F_3_1_5 >= -1
F_Ek1_3_1_5_2: - E_3_2_5 + E_4_1_2 - y_F_3_1_5 >= -1
F_Ek1_3_1_5_3: - E_3_3_5 + E_4_1_3 - y_F_3_1_5 >= -1
F_Ek1_3_1_5_4: - E_3_4_5 + E_4_1_4 - y_F_3_1_5 >= -1
F_Ek1_3_2_0_1: - E_3_0_1 + E_4_1_2 - y_F_3_2_0 >= -1
F_Ek1_3_2_0_3: - E_3_0_3 + E_4_2_3 - y_F_3_2_0 >= -1
F_Ek1_3_2_0_4: - E_3_0_4 + E_4_2_4 - y_F_3_2_0 >= -1
F_Ek1_3_2_0_5: - E_3_0_5 + E_4_2_5 - y_F_3_2_0 >= -1
F_Ek1_3_2_1_0: - E_3_0_1 + E_4_0_2 - y_F_3_2_1 >= -1
F_Ek1_3_2_1_3: - E_3_1_3 + E_4_2_3 - y_F_3_2_1 >= -1
F_Ek1_3_2_1_4: - E_3_1_4 + E_4_2_4 - y_F_3_2_1 >= -1
F_Ek1_3_2_1_5: - E_3_1_5 + E_4_2_5 - y_F_3_2_1 >= -1
F_Ek1_3_2_3_0: - E_3_0_3 + E_4_0_2 - y_F_3_2_3 >= -1
F_Ek1_3_2_3_1: - E_3_1_3 + E_4_1_2 - y_F_3_2_3 >= -1
F_Ek1_3_2_3_4: - E_3_3_4 + E_4_2_4 - y_F_3_2_3 >= -1
F_Ek1_3_2_3_5: - E_3_3_5 + E_4_2_5 - y_F_3_2_3 >= -1
F_Ek1_3_2_4_0: - E_3_0_4 + E_4_0_2 - y_F_3_2_4 >= -1
F_Ek1_3_2_4_1: - E_3_1_4 + E_4_1_2 - y_F_3_2_4 >= -1
F_Ek1_3_2_4_3: - E_3_3_4 + E_4_2_3 - y_F_3_2_4 >= -1
F_Ek1_3_2_4_5: - E_3_4_5 + E_4_2_5 - y_F_3_2_4 >= -1
F_Ek1_3_2_5_0: - E_3_0_5 + E_4_0_2 - y_F_3_2_5 >= -1
F_Ek1_3_2_5_1: - E_3_1_5 + E_4_1_2 - y_F_3_2_5 >= -1
F_Ek1_3_2_5_3: - E_3_3_5 + E_4_2_3 - y_F_3_2_5 >= -1
F_Ek1_3_2_5_4: - E_3_4_5 + E_4_2_4 - y_F_3_2_5 >= -1
F_Ek1_3_3_0_1: - E_3_0_1 + E_4_1_3 - y_F_3_3_0 >= -1
F_Ek1_3_3_0_2: - E_3_0_2 + E_4_2_3 - y_F_3_3_0 >= -1
F_Ek1_3_3_0_4: - E_3_0_4 + E_4_3_4 - y_F_3_3_0 >= -1
F_Ek1_3_3_0_5: - E_3_0_5 + E_4_3_5 - y_F_3_3_0 >= -1
F_Ek1_3_3_1_0: - E_3_0_1 + E_4_0_3 - y_F_3_3_1 >= -1
F_Ek1_3_3_1_2: - E_3_1_2 + E_4_2_3 - y_F_3_3_1 >= -1
F_Ek1_3_3_1_4: - E_3_1_4 + E_4_3_4 - y_F_3_3_1 >= -1
F_Ek1_3_3_1_5: - E_3_1_5 + E_4_3_5 - y_F_3_3_1 >= -1
F_Ek1_3_3_2_0: - E_3_0_2 + E_4_0_3 - y_F_3_3_2 >= -1
F_Ek1_3_3_2_1: - E_3_1_2 + E_4_1_3 - y_F_3_3_2 >= -1
F_Ek1_3_3_2_4: - E_3_2_4 + E_4_3_4 - y_F_3_3_2 >= -1
F_Ek1_3_3_2_5: - E_3_2_5 + E_4_3_5 - y_F_3_3_2 >= -1
F_Ek1_3_3_4_0: - E_3_0_4 + E_4_0_3 - y_F_3_3_4 >= -1
F_Ek1_3_3_4_1: - E_3_1_4 + E_4_1_3 - y_F_3_3_4 >= -1
F_Ek1_3_3_4_2: - E_3_2_4 + E_4_2_3 - y_F_3_3_4 >= -1
F_Ek1_3_3_4_5: - E_3_4_5 + E_4_3_5 - y_F_3_3_4 >= -1
F_Ek1_3_3_5_0: - E_3_0_5 + E_4_0_3 - y_F_3_3_5 >= -1
F_Ek1_3_3_5_1: - E_3_1_5 + E_4_1_3 - y_F_3_3_5 >= -1
F_Ek1_3_3_5_2: - E_3_2_5 + E_4_2_3 - y_F_3_3_5 >= -1
F_Ek1_3_3_5_4: - E_3_4_5 + E_4_3_4 - y_F_3_3_5 >= -1
F_Ek1_3_4_0_1: - E_3_0_1 + E_4_1_4 - y_F_3_4_0 >= -1
F_Ek1_3_4_0_2: - E_3_0_2 + E_4_2_4 - y_F_3_4_0 >= -1
F_Ek1_3_4_0_3: - E_3_0_3 + E_4_3_4 - y_F_3_4_0 >= -1
F_Ek1_3_4_0_5: - E_3_0_5 + E_4_4_5 - y_F_3_4_0 >= -1
F_Ek1_3_4_1_0: - E_3_0_1 + E_4_0_4 - y_F_3_4_1 >= -1
F_Ek1_3_4_1_2: - E_3_1_2 + E_4_2_4 - y_F_3_4_1 >= -1
F_Ek1_3_4_1_3: - E_3_1_3 + E_4_3_4 - y_F_3_4_1 >= -1
F_Ek1_3_4_1_5: - E_3_1_5 + E_4_4_5 - y_F_3_4_1 >= -1
F_Ek1_3_4_2_0: - E_3_0_2 + E_4_0_4 - y_F_3_4_2 >= -1
F_Ek1_3_4_2_1: - E_3_1_2 + E_4_1_4 - y_F_3_4_2 >= -1
F_Ek1_3_4_2_3: - E_3_2_3 + E_4_3_4 - y_F_3_4_2 >= -1
F_Ek1_3_4_2_5: - E_3_2_5 + E_4_4_5 - y_F_3_4_2 >= -1
F_Ek1_3_4_3_0: - E_3_0_3 + E_4_0_4 - y_F_3_4_3 >= -1
F_Ek1_3_4_3_1: - E_3_1_3 + E_4_1_4 - y_F_3_4_3 >= -1
F_Ek1_3_4_3_2: - E_3_2_3 + E_4_2_4 - y_F_3_4_3 >= -1
F_Ek1_3_4_3_5: - E_3_3_5 + E_4_4_5 - y_F_3_4_3 >= -1
F_Ek1_3_4_5_0: - E_3_0_5 + E_4_0_4 - y_F_3_4_5 >= -1
F_Ek1_3_4_5_1: - E_3_1_5 + E_4_1_4 - y_F_3_4_5 >= -1
F_Ek1_3_4_5_2: - E_3_2_5 + E_4_2_4 - y_F_3_4_5 >= -1
F_Ek1_3_4_5_3: - E_3_3_5 + E_4_3_4 - y_F_3_4_5 >= -1
F_Ek1_3_5_0_1: - E_3_0_1 + E_4_1_5 - y_F_3_5_0 >= -1
F_Ek1_3_5_0_2: - E_3_0_2 + E_4_2_5 - y_F_3_5_0 >= -1
F_Ek1_3_5_0_3: - E_3_0_3 + E_4_3_5 - y_F_3_5_0 >= -1
F_Ek1_3_5_0_4: - E_3_0_4 + E_4_4_5 - y_F_3_5_0 >= -1
F_Ek1_3_5_1_0: - E_3_0_1 + E_4_0_5 - y_F_3_5_1 >= -1
F_Ek1_3_5_1_2: - E_3_1_2 + E_4_2_5 - y_F_3_5_1 >= -1
F_Ek1_3_5_1_3: - E_3_1_3 + E_4_3_5 - y_F_3_5_1 >= -1
F_Ek1_3_5_1_4: - E_3_1_4 + E_4_4_5 - y_F_3_5_1 >= -1
F_Ek1_3_5_2_0: - E_3_0_2 + E_4_0_5 - y_F_3_5_2 >= -1
F_Ek1_3_5_2_1: - E_3_1_2 + E_4_1_5 - y_F_3_5_2 >= -1
F_Ek1_3_5_2_3: - E_3_2_3 + E_4_3_5 - y_F_3_5_2 >= -1
F_Ek1_3_5_2_4: - E_3_2_4 + E_4_4_5 - y_F_3_5_2 >= -1
F_Ek1_3_5_3_0: - E_3_0_3 + E_4_0_5 - y_F_3_5_3 >= -1
F_Ek1_3_5_3_1: - E_3_1_3 + E_4_1_5 - y_F_3_5_3 >= -1
F_Ek1_3_5_3_2: - E_3_2_3 + E_4_2_5 - y_F_3_5_3 >= -1
F_Ek1_3_5_3_4: - E_3_3_4 + E_4_4_5 - y_F_3_5_3 >= -1
F_Ek1_3_5_4_0: - E_3_0_4 + E_4_0_5 - y_F_3_5_4 >= -1
F_Ek1_3_5_4_1: - E_3_1_4 + E_4_1_5 - y_F_3_5_4 >= -1
F_Ek1_3_5_4_2: - E_3_2_4 + E_4_2_5 - y_F_3_5_4 >= -1
F_Ek1_3_5_4_3: - E_3_3_4 + E_4_3_5 - y_F_3_5_4 >= -1
F_Ek2_0_0_1_2: E_0_1_2 + E_1_1_2 + y_F_0_0_1 <= 2
F_Ek2_0_0_1_3: E_0_1_3 + E_1_1_3 + y_F_0_0_1 <= 2
F_Ek2_0_0_1_4: E_0_1_4 + E_1_1_4 + y_F_0_0_1 <= 2
F_Ek2_0_0_1_5: E_0_1_5 + E_1_1_5 + y_F_0_0_1 <= 2
F_Ek2_0_0_2_1: E_0_1_2 + E_1_1_2 + y_F_0_0_2 <= 2
F_Ek2_0_0_2_3: E_0_2_3 + E_1_2_3 + y_F_0_0_2 <= 2
F_Ek2_0_0_2_4: E_0_2_4 + E_1_2_4 + y_F_0_0_2 <= 2
F_Ek2_0_0_2_5: E_0_2_5 + E_1_2_5 + y_F_0_0_2 <= 2
F_Ek2_0_0_3_1: E_0_1_3 + E_1_1_3 + y_F_0_0_3 <= 2
F_Ek2_0_0_3_2: E_0_2_3 + E_1_2_3 + y_F_0_0_3 <= 2
F_Ek2_0_0_3_4: E_0_3_4 + E_1_3_4 + y_F_0_0_3 <= 2
F_Ek2_0_0_3_5: E_0_3_5 + E_1_3_5 + y_F_0_0_3 <= 2
F_Ek2_0_0_4_1: E_0_1_4 + E_1_1_4 + y_F_0_0_4 <= 2
F_Ek2_0_0_4_2: E_0_2_4 + E_1_2_4 + y_F_0_0_4 <= 2
F_Ek2_0_0_4_3: E_0_3_4 + E_1_3_4 + y_F_0_0_4 <= 2
F_Ek2_0_0_4_5: E_0_4_5 + E_1_4_5 + y_F_0_0_4 <= 2
F_Ek2_0_0_5_1: E_0_1_5 + E_1_1_5 + y_F_0_0_5 <= 2
F_Ek2_0_0_5_2: E_0_2_5 + E_1_2_5 + y_F_0_0_5 <= 2
F_Ek2_0_0_5_3: E_0_3_5 + E_1_3_5 + y_F_0_0_5 <= 2
F_Ek2_0_0_5_4: E_0_4_5 + E_1_4_5 + y_F_0_0_5 <= 2
F_Ek2_0_1_0_2: E_0_0_2 + E_1_0_2 + y_F_0_1_0 <= 2
F_Ek2_0_1_0_3: E_0_0_3 + E_1_0_3 + y_F_0_1_0 <= 2
F_Ek2_0_1_0_4: E_0_0_4 + E_1_0_4 + y_F_0_1_0 <= 2
F_Ek2_0_1_0_5: E_0_0_5 + E_1_0_5 + y_F_0_1_0 <= 2
F_Ek2_0_1_2_0: E_0_0_2 + E_1_0_2 + y_F_0_1_2 <= 2
F_Ek2_0_1_2_3: E_0_2_3 + E_1_2_3 + y_F_0_1_2 <= 2
F_Ek2_0_1_2_4: E_0_2_4 + E_1_2_4 + y_F_0_1_2 <= 2
F_Ek2_0_1_2_5: E_0_2_5 + E_1_2_5 + y_F_0_1_2 <= 2
F_Ek2_0_1_3_0: E_0_0_3 + E_1_0_3 + y_F_0_1_3 <= 2
F_Ek2_0_1_3_2: E_0_2_3 + E_1_2_3 + y_F_0_1_3 <= 2
F_Ek2_0_1_3_4: E_0_3_4 + E_1_3_4 + y_F_0_1_3 <= 2
F_Ek2_0_1_3_5: E_0_3_5 + E_1_3_5 + y_F_0_1_3 <= 2
F_Ek2_0_1_4_0: E_0_0_4 + E_1_0_4 + y_F_0_1_4 <= 2
F_Ek2_0_1_4_2: E_0_2_4 + E_1_2_4 + y_F_0_1_4 <= 2
F_Ek2_0_1_4_3: E_0_3_4 + E_1_3_4 + y_F_0_1_4 <= 2
F_Ek2_0_1_4_5: E_0_4_5 + E_1_4_5 + y_F_0_1_4 <= 2
F_Ek2_0_1_5_0: E_0_0_5 + E_1_0_5 + y_F_0_1_5 <= 2
F_Ek2_0_1_5_2: E_0_2_5 + E_1_2_5 + y_F_0_1_5 <= 2
F_Ek2_0_1_5_3: E_0_3_5 + E_1_3_5 + y_F_0_1_5 <= 2
F_Ek2_0_1_5_4: E_0_4_5 + E_1_4_5 + y_F_0_1_5 <= 2
F_Ek2_0_2_0_1: E_0_0_1 + E_1_0_1 + y_F_0_2_0 <= 2
F_Ek2_0_2_0_3: E_0_0_3 + E_1_0_3 + y_F_0_2_0 <= 2
F_Ek2_0_2_0_4: E_0_0_4 + E_1_0_4 + y_F_0_2_0 <= 2
F_Ek2_0_2_0_5: E_0_0_5 + E_1_0_5 + y_F_0_2_0 <= 2
F_Ek2_0_2_1_0: E_0_0_1 + E_1_0_1 + y_F_0_2_1 <= 2
F_Ek2_0_2_1_3: E_0_1_3 + E_1_1_3 + y_F_0_2_1 <= 2
F_Ek2_0_2_1_4: E_0_1_4 + E_1_1_4 + y_F_0_2_1 <= 2
F_Ek2_0_2_1_5: E_0_1_5 + E_1_1_5 + y_F_0_2_1 <= 2
F_Ek2_0_2_3_0: E_0_0_3 + E_1_0_3 + y_F_0_2_3 <= 2
F_Ek2_0_2_3_1: E_0_1_3 + E_1_1_3 + y_F_0_2_3 <= 2
F_Ek2_0_2_3_4: E_0_3_4 + E_1_3_4 + y_F_0_2_3 <= 2
F_Ek2_0_2_3_5: E_0_3_5 + E_1_3_5 + y_F_0_2_3 <= 2
F_Ek2_0_2_4_0: E_0_0_4 + E_1_0_4 + y_F_0_2_4 <= 2
F_Ek2_0_2_4_1: E_0_1_4 + E_1_1_4 + y_F_0_2_4 <= 2
F_Ek2_0_2_4_3: E_0_3_4 + E_1_3_4 + y_F_0_2_4 <= 2
F_Ek2_0_2_4_5: E_0_4_5 + E_1_4_5 + y_F_0_2_4 <= 2
F_Ek2_0_2_5_0: E_0_0_5 + E_1_0_5 + y_F_0_2_5 <= 2
F_Ek2_0_2_5_1: E_0_1_5 + E_1_1_5 + y_F_0_2_5 <= 2
F_Ek2_0_2_5_3: E_0_3_5 + E_1_3_5 + y_F_0_2_5 <= 2
F_Ek2_0_2_5_4: E_0_4_5 + E_1_4_5 + y_F_0_2_5 <= 2
F_Ek2_0_3_0_1: E_0_0_1 + E_1_0_1 + y_F_0_3_0 <= 2
F_Ek2_0_3_0_2: E_0_0_2 + E_1_0_2 + y_F_0_3_0 <= 2
F_Ek2_0_3_0_4: E_0_0_4 + E_1_0_4 + y_F_0_3_0 <= 2
F_Ek2_0_3_0_5: E_0_0_5 + E_1_0_5 + y_F_0_3_0 <= 2
F_Ek2_0_3_1_0: E_0_0_1 + E_1_0_1 + y_F_0_3_1 <= 2
F_Ek2_0_3_1_2: E_0_1_2 + E_1_1_2 + y_F_0_3_1 <= 2
F_Ek2_0_3_1_4: E_0_1_4 + E_1_1_4 + y_F_0_3_1 <= 2
F_Ek2_0_3_1_5: E_0_1_5 + E_1_1_5 + y_F_0_3_1 <= 2
F_Ek2_0_3_2_0: E_0_0_2 + E_1_0_2 + y_F_0_3_2 <= 2
F_Ek2_0_3_2_1: E_0_1_2 + E_1_1_2 + y_F_0_3_2 <= 2
F_Ek2_0_3_2_4: E_0_2_4 + E_1_2_4 + y_F_0_3_2 <= 2
F_Ek2_0_3_2_5: E_0_2_5 + E_1_2_5 + y_F_0_3_2 <= 2
F_Ek2_0_3_4_0: E_0_0_4 + E_1_0_4 + y_F_0_3_4 <= 2
F_Ek2_0_3_4_1: E_0_1_4 + E_1_1_4 + y_F_0_3_4 <= 2
F_Ek2_0_3_4_2: E_0_2_4 + E_1_2_4 + y_F_0_3_4 <= 2
F_Ek2_0_3_4_5: E_0_4_5 + E_1_4_5 + y_F_0_3_4 <= 2
F_Ek2_0_3_5_0: E_0_0_5 + E_1_0_5 + y_F_0_3_5 <= 2
F_Ek2_0_3_5_1: E_0_1_5 + E_1_1_5 + y_F_0_3_5 <= 2
F_Ek2_0_3_5_2: E_0_2_5 + E_1_2_5 + y_F_0_3_5 <= 2
F_Ek2_0_3_5_4: E_0_4_5 + E_1_4_5 + y_F_0_3_5 <= 2
F_Ek2_0_4_0_1: E_0_0_1 + E_1_0_1 + y_F_0_4_0 <= 2
F_Ek2_0_4_0_2: E_0_0_2 + E_1_0_2 + y_F_0_4_0 <= 2
F_Ek2_0_4_0_3: E_0_0_3 + E_1_0_3 + y_F_0_4_0 <= 2
F_Ek2_0_4_0_5: E_0_0_5 + E_1_0_5 + y_F_0_4_0 <= 2
F_Ek2_0_4_1_0: E_0_0_1 + E_1_0_1 + y_F_0_4_1 <= 2
F_Ek2_0_4_1_2: E_0_1_2 + E_1_1_2 + y_F_0_4_1 <= 2
F_Ek2_0_4_1_3: E_0_1_3 + E_1_1_3 + y_F_0_4_1 <= 2
F_Ek2_0_4_1_5: E_0_1_5 + E_1_1_5 + y_F_0_4_1 <= 2
F_Ek2_0_4_2_0: E_0_0_2 + E_1_0_2 + y_F_0_4_2 <= 2
F_Ek2_0_4_2_1: E_0_1_2 + E_1_1_2 + y_F_0_4_2 <= 2
F_Ek2_0_4_2_3: E_0_2_3 + E_1_2_3 + y_F_0_4_2 <= 2
F_Ek2_0_4_2_5: E_0_2_5 + E_1_2_5 + y_F_0_4_2 <= 2
F_Ek2_0_4_3_0: E_0_0_3 + E_1_0_3 + y_F_0_4_3 <= 2
F_Ek2_0_4_3_1: E_0_1_3 + E_1_1_3 + y_F_0_4_3 <= 2
F_Ek2_0_4_3_2: E_0_2_3 + E_1_2_3 + y_F_0_4_3 <= 2
F_Ek2_0_4_3_5: E_0_3_5 + E_1_3_5 + y_F_0_4_3 <= 2
F_Ek2_0_4_5_0: E_0_0_5 + E_1_0_5 + y_F_0_4_5 <= 2
F_Ek2_0_4_5_1: E_0_1_5 + E_1_1_5 + y_F_0_4_5 <= 2
F_Ek2_0_4_5_2: E_0_2_5 + E_1_2_5 + y_F_0_4_5 <= 2
F_Ek2_0_4_5_3: E_0_3_5 + E_1_3_5 + y_F_0_4_5 <= 2
F_Ek2_0_5_0_1: E_0_0_1 + E_1_0_1 + y_F_0_5_0 <= 2
F_Ek2_0_5_0_2: E_0_0_2 + E_1_0_2 + y_F_0_5_0 <= 2
F_Ek2_0_5_0_3: E_0_0_3 + E_1_0_3 + y_F_0_5_0 <= 2
F_Ek2_0_5_0_4: E_0_0_4 + E_1_0_4 + y_F_0_5_0 <= 2
F_Ek2_0_5_1_0: E_0_0_1 + E_1_0_1 + y_F_0_5_1 <= 2
F_Ek2_0_5_1_2: E_0_1_2 + E_1_1_2 + y_F_0_5_1 <= 2
F_Ek2_0_5_1_3: E_0_1_3 + E_1_1_3 + y_F_0_5_1 <= 2
F_Ek2_0_5_1_4: E_0_1_4 + E_1_1_4 + y_F_0_5_1 <= 2
F_Ek2_0_5_2_0: E_0_0_2 + E_1_0_2 + y_F_0_5_2 <= 2
F_Ek2_0_5_2_1: E_0_1_2 + E_1_1_2 + y_F_0_5_2 <= 2
F_Ek2_0_5_2_3: E_0_2_3 + E_1_2_3 + y_F_0_5_2 <= 2
F_Ek2_0_5_2_4: E_0_2_4 + E_1_2_4 + y_F_0_5_2 <= 2
F_Ek2_0_5_3_0: E_0_0_3 + E_1_0_3 + y_F_0_5_3 <= 2
F_Ek2_0_5_3_1: E_0_1_3 + E_1_1_3 + y_F_0_5_3 <= 2
F_Ek2_0_5_3_2: E_0_2_3 + E_1_2_3 + y_F_0_5_3 <= 2
F_Ek2_0_5_3_4: E_0_3_4 + E_1_3_4 + y_F_0_5_3 <= 2
F_Ek2_0_5_4_0: E_0_0_4 + E_1_0_4 + y_F_0_5_4 <= 2
F_Ek2_0_5_4_1: E_0_1_4 + E_1_1_4 + y_F_0_5_4 <= 2
F_Ek2_0_5_4_2: E_0_2_4 + E_1_2_4 + y_F_0_5_4 <= 2
F_Ek2_0_5_4_3: E_0_3_4 + E_1_3_4 + y_F_0_5_4 <= 2
F_Ek2_1_0_1_2: E_1_1_2 + E_2_1_2 + y_F_1_0_1 <= 2
F_Ek2_1_0_1_3: E_1_1_3 + E_2_1_3 + y_F_1_0_1 <= 2
F_Ek2_1_0_1_4: E_1_1_4 + E_2_1_4 + y_F_1_0_1 <= 2
F_Ek2_1_0_1_5: E_1_1_5 + E_2_1_5 + y_F_1_0_1 <= 2
F_Ek2_1_0_2_1: E_1_1_2 + E_2_1_2 + y_F_1_0_2 <= 2
F_Ek2_1_0_2_3: E_1_2_3 + E_2_2_3 + y_F_1_0_2 <= 2
F_Ek2_1_0_2_4: E_1_2_4 + E_2_2_4 + y_F_1_0_2 <= 2
F_Ek2_1_0_2_5: E_1_2_5 + E_2_2_5 + y_F_1_0_2 <= 2
F_Ek2_1_0_3_1: E_1_1_3 + E_2_1_3 + y_F_1_0_3 <= 2
F_Ek2_1_0_3_2: E_1_2_3 + E_2_2_3 + y_F_1_0_3 <= 2
F_Ek2_1_0_3_4: E_1_3_4 + E_2_3_4 + y_F_1_0_3 <= 2
F_Ek2_1_0_3_5: E_1_3_5 + E_2_3_5 + y_F_1_0_3 <= 2
F_Ek2_1_0_4_1: E_1_1_4 + E_2_1_4 + y_F_1_0_4 <= 2
F_Ek2_1_0_4_2: E_1_2_4 + E_2_2_4 + y_F_1_0_4 <= 2
F_Ek2_1_0_4_3: E_1_3_4 + E_2_3_4 + y_F_1_0_4 <= 2
F_Ek2_1_0_4_5: E_1_4_5 + E_2_4_5 + y_F_1_0_4 <= 2
F_Ek2_1_0_5_1: E_1_1_5 + E_2_1_5 + y_F_1_0_5 <= 2
F_Ek2_1_0_5_2: E_1_2_5 + E_2_2_5 + y_F_1_0_5 <= 2
F_Ek2_1_0_5_3: E_1_3_5 + E_2_3_5 + y_F_1_0_5 <= 2
F_Ek2_1_0_5_4: E_1_4_5 + E_2_4_5 + y_F_1_0_5 <= 2
F_Ek2_1_1_0_2: E_1_0_2 + E_2_0_2 + y_F_1_1_0 <= 2
F_Ek2_1_1_0_3: E_1_0_3 + E_2_0_3 + y_F_1_1_0 <= 2
F_Ek2_1_1_0_4: E_1_0_4 + E_2_0_4 + y_F_1_1_0 <= 2
F_Ek2_1_1_0_5: E_1_0_5 + E_2_0_5 + y_F_1_1_0 <= 2
F_Ek2_1_1_2_0: E_1_0_2 + E_2_0_2 + y_F_1_1_2 <= 2
F_Ek2_1_1_2_3: E_1_2_3 + E_2_2_3 + y_F_1_1_2 <= 2
F_Ek2_1_1_2_4: E_1_2_4 + E_2_2_4 + y_F_1_1_2 <= 2
F_Ek2_1_1_2_5: E_1_2_5 + E_2_2_5 + y_F_1_1_2 <= 2
F_Ek2_1_1_3_0: E_1_0_3 + E_2_0_3 + y_F_1_1_3 <= 2
F_Ek2_1_1_3_2: E_1_2_3 + E_2_2_3 + y_F_1_1_3 <= 2
F_Ek2_1_1_3_4: E_1_3_4 + E_2_3_4 + y_F_1_1_3 <= 2
F_Ek2_1_1_3_5: E_1_3_5 + E_2_3_5 + y_F_1_1_3 <= 2
F_Ek2_1_1_4_0: E_1_0_4 + E_2_0_4 + y_F_1_1_4 <= 2
F_Ek2_1_1_4_2: E_1_2_4 + E_2_2_4 + y_F_1_1_4 <= 2
F_Ek2_1_1_4_3: E_1_3_4 + E_2_3_4 + y_F_1_1_4 <= 2
F_Ek2_1_1_4_5: E_1_4_5 + E_2_4_5 + y_F_1_1_4 <= 2
F_Ek2_1_1_5_0: E_1_0_5 + E_2_0_5 + y_F_1_1_5 <= 2
F_Ek2_1_1_5_2: E_1_2_5 + E_2_2_5 + y_F_1_1_5 <= 2
F_Ek2_1_1_5_3: E_1_3_5 + E_2_3_5 + y_F_1_1_5 <= 2
F_Ek2_1_1_5_4: E_1_4_5 + E_2_4_5 + y_F_1_1_5 <= 2
F_Ek2_1_2_0_1: E_1_0_1 + E_2_0_1 + y_F_1_2_0 <= 2
F_Ek2_1_2_0_3: E_1_0_3 + E_2_0_3 + y_F_1_2_0 <= 2
F_Ek2_1_2_0_4: E_1_0_4 + E_2_0_4 + y_F_1_2_0 <= 2
F_Ek2_1_2_0_5: E_1_0_5 + E_2_0_5 + y_F_1_2_0 <= 2
F_Ek2_1_2_1_0: E_1_0_1 + E_2_0_1 + y_F_1_2_1 <= 2
F_Ek2_1_2_1_3: E_1_1_3 + E_2_1_3 + y_F_1_2_1 <= 2
F_Ek2_1_2_1_4: E_1_1_4 + E_2_1_4 + y_F_1_2_1 <= 2
F_Ek2_1_2_1_5: E_1_1_5 + E_2_1_5 + y_F_1_2_1 <= 2
F_Ek2_1_2_3_0: E_1_0_3 + E_2_0_3 + y_F_1_2_3 <= 2
F_Ek2_1_2_3_1: E_1_1_3 + E_2_1_3 + y_F_1_2_3 <= 2
F_Ek2_1_2_3_4: E_1_3_4 + E_2_3_4 + y_F_1_2_3 <= 2
F_Ek2_1_2_3_5: E_1_3_5 + E_2_3_5 + y_F_1_2_3 <= 2
F_Ek2_1_2_4_0: E_1_0_4 + E_2_0_4 + y_F_1_2_4 <= 2
F_Ek2_1_2_4_1: E_1_1_4 + E_2_1_4 + y_F_1_2_4 <= 2
F_Ek2_1_2_4_3: E_1_3_4 + E_2_3_4 + y_F_1_2_4 <= 2
F_Ek2_1_2_4_5: E_1_4_5 + E_2_4_5 + y_F_1_2_4 <= 2
F_Ek2_1_2_5_0: E_1_0_5 + E_2_0_5 + y_F_1_2_5 <= 2
F_Ek2_1_2_5_1: E_1_1_5 + E_2_1_5 + y_F_1_2_5 <= 2
F_Ek2_1_2_5_3: E_1_3_5 + E_2_3_5 + y_F_1_2_5 <= 2
F_Ek2_1_2_5_4: E_1_4_5 + E_2_4_5 + y_F_1_2_5 <= 2
F_Ek2_1_3_0_1: E_1_0_1 + E_2_0_1 + y_F_1_3_0 <= 2
F_Ek2_1_3_0_2: E_1_0_2 + E_2_0_2 + y_F_1_3_0 <= 2
F_Ek2_1_3_0_4: E_1_0_4 + E_2_0_4 + y_F_1_3_0 <= 2
F_Ek2_1_3_0_5: E_1_0_5 + E_2_0_5 + y_F_1_3_0 <= 2
F_Ek2_1_3_1_0: E_1_0_1 + E_2_0_1 + y_F_1_3_1 <= 2
F_Ek2_1_3_1_2: E_1_1_2 + E_2_1_2 + y_F_1_3_1 <= 2
F_Ek2_1_3_1_4: E_1_1_4 + E_2_1_4 + y_F_1_3_1 <= 2
F_Ek2_1_3_1_5: E_1_1_5 + E_2_1_5 + y_F_1_3_1 <= 2
F_Ek2_1_3_2_0: E_1_0_2 + E_2_0_2 + y_F_1_3_2 <= 2
F_Ek2_1_3_2_1: E_1_1_2 + E_2_1_2 + y_F_1_3_2 <= 2
F_Ek2_1_3_2_4: E_1_2_4 + E_2_2_4 + y_F_1_3_2 <= 2
F_Ek2_1_3_2_5: E_1_2_5 + E_2_2_5 + y_F_1_3_2 <= 2
F_Ek2_1_3_4_0: E_1_0_4 + E_2_0_4 + y_F_1_3_4 <= 2
F_Ek2_1_3_4_1: E_1_1_4 + E_2_1_4 + y_F_1_3_4 <= 2
F_Ek2_1_3_4_2: E_1_2_4 + E_2_2_4 + y_F_1_3_4 <= 2
F_Ek2_1_3_4_5: E_1_4_5 + E_2_4_5 + y_F_1_3_4 <= 2
F_Ek2_1_3_5_0: E_1_0_5 + E_2_0_5 + y_F_1_3_5 <= 2
F_Ek2_1_3_5_1: E_1_1_5 + E_2_1_5 + y_F_1_3_5 <= 2
F_Ek2_1_3_5_2: E_1_2_5 + E_2_2_5 + y_F_1_3_5 <= 2
F_Ek2_1_3_5_4: E_1_4_5 + E_2_4_5 + y_F_1_3_5 <= 2
F_Ek2_1_4_0_1: E_1_0_1 + E_2_0_1 + y_F_1_4_0 <= 2
F_Ek2_1_4_0_2: E_1_0_2 + E_2_0_2 + y_F_1_4_0 <= 2
F_Ek2_1_4_0_3: E_1_0_3 + E_2_0_3 + y_F_1_4_0 <= 2
F_Ek2_1_4_0_5: E_1_0_5 + E_2_0_5 + y_F_1_4_0 <= 2
F_Ek2_1_4_1_0: E_1_0_1 + E_2_0_1 + y_F_1_4_1 <= 2
F_Ek2_1_4_1_2: E_1_1_2 + E_2_1_2 + y_F_1_4_1 <= 2
F_Ek2_1_4_1_3: E_1_1_3 + E_2_1_3 + y_F_1_4_1 <= 2
F_Ek2_1_4_1_5: E_1_1_5 + E_2_1_5 + y_F_1_4_1 <= 2
F_Ek2_1_4_2_0: E_1_0_2 + E_2_0_2 + y_F_1_4_2 <= 2
F_Ek2_1_4_2_1: E_1_1_2 + E_2_1_2 + y_F_1_4_2 <= 2
F_Ek2_1_4_2_3: E_1_2_3 + E_2_2_3 + y_F_1_4_2 <= 2
F_Ek2_1_4_2_5: E_1_2_5 + E_2_2_5 + y_F_1_4_2 <= 2
F_Ek2_1_4_3_0: E_1_0_3 + E_2_0_3 + y_F_1_4_3 <= 2
F_Ek2_1_4_3_1: E_1_1_3 + E_2_1_3 + y_F_1_4_3 <= 2
F_Ek2_1_4_3_2: E_1_2_3 + E_2_2_3 + y_F_1_4_3 <= 2
F_Ek2_1_4_3_5: E_1_3_5 + E_2_3_5 + y_F_1_4_3 <= 2
F_Ek2_1_4_5_0: E_1_0_5 + E_2_0_5 + y_F_1_4_5 <= 2
F_Ek2_1_4_5_1: E_1_1_5 + E_2_1_5 + y_F_1_4_5 <= 2
F_Ek2_1_4_5_2: E_1_2_5 + E_2_2_5 + y_F_1_4_5 <= 2
F_Ek2_1_4_5_3: E_1_3_5 + E_2_3_5 + y_F_1_4_5 <= 2
F_Ek2_1_5_0_1: E_1_0_1 + E_2_0_1 + y_F_1_5_0 <= 2
F_Ek2_1_5_0_2: E_1_0_2 + E_2_0_2 + y_F_1_5_0 <= 2
F_Ek2_1_5_0_3: E_1_0_3 + E_2_0_3 + y_F_1_5_0 <= 2
F_Ek2_1_5_0_4: E_1_0_4 + E_2_0_4 + y_F_1_5_0 <= 2
F_Ek2_1_5_1_0: E_1_0_1 + E_2_0_1 + y_F_1_5_1 <= 2
F_Ek2_1_5_1_2: E_1_1_2 + E_2_1_2 + y_F_1_5_1 <= 2
F_Ek2_1_5_1_3: E_1_1_3 + E_2_1_3 + y_F_1_5_1 <= 2
F_Ek2_1_5_1_4: E_1_1_4 + E_2_1_4 + y_F_1_5_1 <= 2
F_Ek2_1_5_2_0: E_1_0_2 + E_2_0_2 + y_F_1_5_2 <= 2
F_Ek2_1_5_2_1: E_1_1_2 + E_2_1_2 + y_F_1_5_2 <= 2
F_Ek2_1_5_2_3: E_1_2_3 + E_2_2_3 + y_F_1_5_2 <= 2
F_Ek2_1_5_2_4: E_1_2_4 + E_2_2_4 + y_F_1_5_2 <= 2
F_Ek2_1_5_3_0: E_1_0_3 + E_2_0_3 + y_F_1_5_3 <= 2
F_Ek2_1_5_3_1: E_1_1_3 + E_2_1_3 + y_F_1_5_3 <= 2
F_Ek2_1_5_3_2: E_1_2_3 + E_2_2_3 + y_F_1_5_3 <= 2
F_Ek2_1_5_3_4: E_1_3_4 + E_2_3_4 + y_F_1_5_3 <= 2
F_Ek2_1_5_4_0: E_1_0_4 + E_2_0_4 + y_F_1_5_4 <= 2
F_Ek2_1_5_4_1: E_1_1_4 + E_2_1_4 + y_F_1_5_4 <= 2
F_Ek2_1_5_4_2: E_1_2_4 + E_2_2_4 + y_F_1_5_4 <= 2
F_Ek2_1_5_4_3: E_1_3_4 + E_2_3_4 + y_F_1_5_4 <= 2
F_Ek2_2_0_1_2: E_2_1_2 + E_3_1_2 + y_F_2_0_1 <= 2
F_Ek2_2_0_1_3: E_2_1_3 + E_3_1_3 + y_F_2_0_1 <= 2
F_Ek2_2_0_1_4: E_2_1_4 + E_3_1_4 + y_F_2_0_1 <= 2
F_Ek2_2_0_1_5: E_2_1_5 + E_3_1_5 + y_F_2_0_1 <= 2
F_Ek2_2_0_2_1: E_2_1_2 + E_3_1_2 + y_F_2_0_2 <= 2
F_Ek2_2_0_2_3: E_2_2_3 + E_3_2_3 + y_F_2_0_2 <= 2
F_Ek2_2_0_2_4: E_2_2_4 + E_3_2_4 + y_F_2_0_2 <= 2
F_Ek2_2_0_2_5: E_2_2_5 + E_3_2_5 + y_F_2_0_2 <= 2
F_Ek2_2_0_3_1: E_2_1_3 + E_3_1_3 + y_F_2_0_3 <= 2
F_Ek2_2_0_3_2: E_2_2_3 + E_3_2_3 + y_F_2_0_3 <= 2
F_Ek2_2_0_3_4: E_2_3_4 + E_3_3_4 + y_F_2_0_3 <= 2
F_Ek2_2_0_3_5: E_2_3_5 + E_3_3_5 + y_F_2_0_3 <= 2
F_Ek2_2_0_4_1: E_2_1_4 + E_3_1_4 + y_F_2_0_4 <= 2
F_Ek2_2_0_4_2: E_2_2_4 + E_3_2_4 + y_F_2_0_4 <= 2
F_Ek2_2_0_4_3: E_2_3_4 + E_3_3_4 + y_F_2_0_4 <= 2
F_Ek2_2_0_4_5: E_2_4_5 + E_3_4_5 + y_F_2_0_4 <= 2
F_Ek2_2_0_5_1: E_2_1_5 + E_3_1_5 + y_F_2_0_5 <= 2
F_Ek2_2_0_5_2: E_2_2_5 + E_3_2_5 + y_F_2_0_5 <= 2
F_Ek2_2_0_5_3: E_2_3_5 + E_3_3_5 + y_F_2_0_5 <= 2
F_Ek2_2_0_5_4: E_2_4_5 + E_3_4_5 + y_F_2_0_5 <= 2
F_Ek2_2_1_0_2: E_2_0_2 + E_3_0_2 + y_F_2_1_0 <= 2
F_Ek2_2_1_0_3: E_2_0_3 + E_3_0_3 + y_F_2_1_0 <= 2
F_Ek2_2_1_0_4: E_2_0_4 + E_3_0_4 + y_F_2_1_0 <= 2
F_Ek2_2_1_0_5: E_2_0_5 + E_3_0_5 + y_F_2_1_0 <= 2
F_Ek2_2_1_2_0: E_2_0_2 + E_3_0_2 + y_F_2_1_2 <= 2
F_Ek2_2_1_2_3: E_2_2_3 + E_3_2_3 + y_F_2_1_2 <= 2
F_Ek2_2_1_2_4: E_2_2_4 + E_3_2_4 + y_F_2_1_2 <= 2
F_Ek2_2_1_2_5: E_2_2_5 + E_3_2_5 + y_F_2_1_2 <= 2
F_Ek2_2_1_3_0: E_2_0_3 + E_3_0_3 + y_F_2_1_3 <= 2
F_Ek2_2_1_3_2: E_2_2_3 + E_3_2_3 + y_F_2_1_3 <= 2
F_Ek2_2_1_3_4: E_2_3_4 + E_3_3_4 + y_F_2_1_3 <= 2
F_Ek2_2_1_3_5: E_2_3_5 + E_3_3_5 + y_F_2_1_3 <= 2
F_Ek2_2_1_4_0: E_2_0_4 + E_3_0_4 + y_F_2_1_4 <= 2
F_Ek2_2_1_4_2: E_2_2_4 + E_3_2_4 + y_F_2_1_4 <= 2
F_Ek2_2_1_4_3: E_2_3_4 + E_3_3_4 + y_F_2_1_4 <= 2
F_Ek2_2_1_4_5: E_2_4_5 + E_3_4_5 + y_F_2_1_4 <= 2
F_Ek2_2_1_5_0: E_2_0_5 + E_3_0_5 + y_F_2_1_5 <= 2
F_Ek2_2_1_5_2: E_2_2_5 + E_3_2_5 + y_F_2_1_5 <= 2
F_Ek2_2_1_5_3: E_2_3_5 + E_3_3_5 + y_F_2_1_5 <= 2
F_Ek2_2_1_5_4: E_2_4_5 + E_3_4_5 + y_F_2_1_5 <= 2
F_Ek2_2_2_0_1: E_2_0_1 + E_3_0_1 + y_F_2_2_0 <= 2
F_Ek2_2_2_0_3: E_2_0_3 + E_3_0_3 + y_F_2_2_0 <= 2
F_Ek2_2_2_0_4: E_2_0_4 + E_3_0_4 + y_F_2_2_0 <= 2
F_Ek2_2_2_0_5: E_2_0_5 + E_3_0_5 + y_F_2_2_0 <= 2
F_Ek2_2_2_1_0: E_2_0_1 + E_3_0_1 + y_F_2_2_1 <= 2
F_Ek2_2_2_1_3: E_2_1_3 + E_3_1_3 + y_F_2_2_1 <= 2
F_Ek2_2_2_1_4: E_2_1_4 + E_3_1_4 + y_F_2_2_1 <= 2
F_Ek2_2_2_1_5: E_2_1_5 + E_3_1_5 + y_F_2_2_1 <= 2
F_Ek2_2_2_3_0: E_2_0_3 + E_3_0_3 + y_F_2_2_3 <= 2
F_Ek2_2_2_3_1: E_2_1_3 + E_3_1_3 + y_F_2_2_3 <= 2
F_Ek2_2_2_3_4: E_2_3_4 + E_3_3_4 + y_F_2_2_3 <= 2
F_Ek2_2_2_3_5: E_2_3_5 + E_3_3_5 + y_F_2_2_3 <= 2
F_Ek2_2_2_4_0: E_2_0_4 + E_3_0_4 + y_F_2_2_4 <= 2
F_Ek2_2_2_4_1: E_2_1_4 + E_3_1_4 + y_F_2_2_4 <= 2
F_Ek2_2_2_4_3: E_2_3_4 + E_3_3_4 + y_F_2_2_4 <= 2
F_Ek2_2_2_4_5: E_2_4_5 + E_3_4_5 + y_F_2_2_4 <= 2
F_Ek2_2_2_5_0: E_2_0_5 + E_3_0_5 + y_F_2_2_5 <= 2
F_Ek2_2_2_5_1: E_2_1_5 + E_3_1_5 + y_F_2_2_5 <= 2
F_Ek2_2_2_5_3: E_2_3_5 + E_3_3_5 + y_F_2_2_5 <= 2
F_Ek2_2_2_5_4: E_2_4_5 + E_3_4_5 + y_F_2_2_5 <= 2
F_Ek2_2_3_0_1: E_2_0_1 + E_3_0_1 + y_F_2_3_0 <= 2
F_Ek2_2_3_0_2: E_2_0_2 + E_3_0_2 + y_F_2_3_0 <= 2
F_Ek2_2_3_0_4: E_2_0_4 + E_3_0_4 + y_F_2_3_0 <= 2
F_Ek2_2_3_0_5: E_2_0_5 + E_3_0_5 + y_F_2_3_0 <= 2
F_Ek2_2_3_1_0: E_2_0_1 + E_3_0_1 + y_F_2_3_1 <= 2
F_Ek2_2_3_1_2: E_2_1_2 + E_3_1_2 + y_F_2_3_1 <= 2
F_Ek2_2_3_1_4: E_2_1_4 + E_3_1_4 + y_F_2_3_1 <= 2
F_Ek2_2_3_1_5: E_2_1_5 + E_3_1_5 + y_F_2_3_1 <= 2
F_Ek2_2_3_2_0: E_2_0_2 + E_3_0_2 + y_F_2_3_2 <= 2
F_Ek2_2_3_2_1: E_2_1_2 + E_3_1_2 + y_F_2_3_2 <= 2
F_Ek2_2_3_2_4: E_2_2_4 + E_3_2_4 + y_F_2_3_2 <= 2
F_Ek2_2_3_2_5: E_2_2_5 + E_3_2_5 + y_F_2_3_2 <= 2
F_Ek2_2_3_4_0: E_2_0_4 + E_3_0_4 + y_F_2_3_4 <= 2
F_Ek2_2_3_4_1: E_2_1_4 + E_3_1_4 + y_F_2_3_4 <= 2
F_Ek2_2_3_4_2: E_2_2_4 + E_3_2_4 + y_F_2_3_4 <= 2
F_Ek2_2_3_4_5: E_2_4_5 + E_3_4_5 + y_F_2_3_4 <= 2
F_Ek2_2_3_5_0: E_2_0_5 + E_3_0_5 + y_F_2_3_5 <= 2
F_Ek2_2_3_5_1: E_2_1_5 + E_3_1_5 + y_F_2_3_5 <= 2
F_Ek2_2_3_5_2: E_2_2_5 + E_3_2_5 + y_F_2_3_5 <= 2
F_Ek2_2_3_5_4: E_2_4_5 + E_3_4_5 + y_F_2_3_5 <= 2
F_Ek2_2_4_0_1: E_2_0_1 + E_3_0_1 + y_F_2_4_0 <= 2
F_Ek2_2_4_0_2: E_2_0_2 + E_3_0_2 + y_F_2_4_0 <= 2
F_Ek2_2_4_0_3: E_2_0_3 + E_3_0_3 + y_F_2_4_0 <= 2
F_Ek2_2_4_0_5: E_2_0_5 + E_3_0_5 + y_F_2_4_0 <= 2
F_Ek2_2_4_1_0: E_2_0_1 + E_3_0_1 + y_F_2_4_1 <= 2
F_Ek2_2_4_1_2: E_2_1_2 + E_3_1_2 + y_F_2_4_1 <= 2
F_Ek2_2_4_1_3: E_2_1_3 + E_3_1_3 + y_F_2_4_1 <= 2
F_Ek2_2_4_1_5: E_2_1_5 + E_3_1_5 + y_F_2_4_1 <= 2
F_Ek2_2_4_2_0: E_2_0_2 + E_3_0_2 + y_F_2_4_2 <= 2
F_Ek2_2_4_2_1: E_2_1_2 + E_3_1_2 + y_F_2_4_2 <= 2
F_Ek2_2_4_2_3: E_2_2_3 + E_3_2_3 + y_F_2_4_2 <= 2
F_Ek2_2_4_2_5: E_2_2_5 + E_3_2_5 + y_F_2_4_2 <= 2
F_Ek2_2_4_3_0: E_2_0_3 + E_3_0_3 + y_F_2_4_3 <= 2
F_Ek2_2_4_3_1: E_2_1_3 + E_3_1_3 + y_F_2_4_3 <= 2
F_Ek2_2_4_3_2: E_2_2_3 + E_3_2_3 + y_F_2_4_3 <= 2
F_Ek2_2_4_3_5: E_2_3_5 + E_3_3_5 + y_F_2_4_3 <= 2
F_Ek2_2_4_5_0: E_2_0_5 + E_3_0_5 + y_F_2_4_5 <= 2
F_Ek2_2_4_5_1: E_2_1_5 + E_3_1_5 + y_F_2_4_5 <= 2
F_Ek2_2_4_5_2: E_2_2_5 + E_3_2_5 + y_F_2_4_5 <= 2
F_Ek2_2_4_5_3: E_2_3_5 + E_3_3_5 + y_F_2_4_5 <= 2
F_Ek2_2_5_0_1: E_2_0_1 + E_3_0_1 + y_F_2_5_0 <= 2
F_Ek2_2_5_0_2: E_2_0_2 + E_3_0_2 + y_F_2_5_0 <= 2
F_Ek2_2_5_0_3: E_2_0_3 + E_3_0_3 + y_F_2_5_0 <= 2
F_Ek2_2_5_0_4: E_2_0_4 + E_3_0_4 + y_F_2_5_0 <= 2
F_Ek2_2_5_1_0: E_2_0_1 + E_3_0_1 + y_F_2_5_1 <= 2
F_Ek2_2_5_1_2: E_2_1_2 + E_3_1_2 + y_F_2_5_1 <= 2
F_Ek2_2_5_1_3: E_2_1_3 + E_3_1_3 + y_F_2_5_1 <= 2
F_Ek2_2_5_1_4: E_2_1_4 + E_3_1_4 + y_F_2_5_1 <= 2
F_Ek2_2_5_2_0: E_2_0_2 + E_3_0_2 + y_F_2_5_2 <= 2
F_Ek2_2_5_2_1: E_2_1_2 + E_3_1_2 + y_F_2_5_2 <= 2
F_Ek2_2_5_2_3: E_2_2_3 + E_3_2_3 + y_F_2_5_2 <= 2
F_Ek2_2_5_2_4: E_2_2_4 + E_3_2_4 + y_F_2_5_2 <= 2
F_Ek2_2_5_3_0: E_2_0_3 + E_3_0_3 + y_F_2_5_3 <= 2
F_Ek2_2_5_3_1: E_2_1_3 + E_3_1_3 + y_F_2_5_3 <= 2
F_Ek2_2_5_3_2: E_2_2_3 + E_3_2_3 + y_F_2_5_3 <= 2
F_Ek2_2_5_3_4: E_2_3_4 + E_3_3_4 + y_F_2_5_3 <= 2
F_Ek2_2_5_4_0: E_2_0_4 + E_3_0_4 + y_F_2_5_4 <= 2
F_Ek2_2_5_4_1: E_2_1_4 + E_3_1_4 + y_F_2_5_4 <= 2
F_Ek2_2_5_4_2: E_2_2_4 + E_3_2_4 + y_F_2_5_4 <= 2
F_Ek2_2_5_4_3: E_2_3_4 + E_3_3_4 + y_F_2_5_4 <= 2
F_Ek2_3_0_1_2: E_3_1_2 + E_4_1_2 + y_F_3_0_1 <= 2
F_Ek2_3_0_1_3: E_3_1_3 + E_4_1_3 + y_F_3_0_1 <= 2
F_Ek2_3_0_1_4: E_3_1_4 + E_4_1_4 + y_F_3_0_1 <= 2
F_Ek2_3_0_1_5: E_3_1_5 + E_4_1_5 + y_F_3_0_1 <= 2
F_Ek2_3_0_2_1: E_3_1_2 + E_4_1_2 + y_F_3_0_2 <= 2
F_Ek2_3_0_2_3: E_3_2_3 + E_4_2_3 + y_F_3_0_2 <= 2
F_Ek2_3_0_2_4: E_3_2_4 + E_4_2_4 + y_F_3_0_2 <= 2
F_Ek2_3_0_2_5: E_3_2_5 + E_4_2_5 + y_F_3_0_2 <= 2
F_Ek2_3_0_3_1: E_3_1_3 + E_4_1_3 + y_F_3_0_3 <= 2
F_Ek2_3_0_3_2: E_3_2_3 + E_4_2_3 + y_F_3_0_3 <= 2
F_Ek2_3_0_3_4: E_3_3_4 + E_4_3_4 + y_F_3_0_3 <= 2
F_Ek2_3_0_3_5: E_3_3_5 + E_4_3_5 + y_F_3_0_3 <= 2
F_Ek2_3_0_4_1: E_3_1_4 + E_4_1_4 + y_F_3_0_4 <= 2
F_Ek2_3_0_4_2: E_3_2_4 + E_4_2_4 + y_F_3_0_4 <= 2
F_Ek2_3_0_4_3: E_3_3_4 + E_4_3_4 + y_F_3_0_4 <= 2
F_Ek2_3_0_4_5: E_3_4_5 + E_4_4_5 + y_F_3_0_4 <= 2
F_Ek2_3_0_5_1: E_3_1_5 + E_4_1_5 + y_F_3_0_5 <= 2
F_Ek2_3_0_5_2: E_3_2_5 + E_4_2_5 + y_F_3_0_5 <= 2
F_Ek2_3_0_5_3: E_3_3_5 + E_4_3_5 + y_F_3_0_5 <= 2
F_Ek2_3_0_5_4: E_3_4_5 + E_4_4_5 + y_F_3_0_5 <= 2
F_Ek2_3_1_0_2: E_3_0_2 + E_4_0_2 + y_F_3_1_0 <= 2
F_Ek2_3_1_0_3: E_3_0_3 + E_4_0_3 + y_F_3_1_0 <= 2
F_Ek2_3_1_0_4: E_3_0_4 + E_4_0_4 + y_F_3_1_0 <= 2
F_Ek2_3_1_0_5: E_3_0_5 + E_4_0_5 + y_F_3_1_0 <= 2
F_Ek2_3_1_2_0: E_3_0_2 + E_4_0_2 + y_F_3_1_2 <= 2
F_Ek2_3_1_2_3: E_3_2_3 + E_4_2_3 + y_F_3_1_2 <= 2
F_Ek2_3_1_2_4: E_3_2_4 + E_4_2_4 + y_F_3_1_2 <= 2
F_Ek2_3_1_2_5: E_3_2_5 + E_4_2_5 + y_F_3_1_2 <= 2
F_Ek2_3_1_3_0: E_3_0_3 + E_4_0_3 + y_F_3_1_3 <= 2
F_Ek2_3_1_3_2: E_3_2_3 + E_4_2_3 + y_F_3_1_3 <= 2
F_Ek2_3_1_3_4: E_3_3_4 + E_4_3_4 + y_F_3_1_3 <= 2
F_Ek2_3_1_3_5: E_3_3_5 + E_4_3_5 + y_F_3_1_3 <= 2
F_Ek2_3_1_4_0: E_3_0_4 + E_4_0_4 + y_F_3_1_4 <= 2
F_Ek2_3_1_4_2: E_3_2_4 + E_4_2_4 + y_F_3_1_4 <= 2
F_Ek2_3_1_4_3: E_3_3_4 + E_4_3_4 + y_F_3_1_4 <= 2
F_Ek2_3_1_4_5: E_3_4_5 + E_4_4_5 + y_F_3_1_4 <= 2
F_Ek2_3_1_5_0: E_3_0_5 + E_4_0_5 + y_F_3_1_5 <= 2
F_Ek2_3_1_5_2: E_3_2_5 + E_4_2_5 + y_F_3_1_5 <= 2
F_Ek2_3_1_5_3: E_3_3_5 + E_4_3_5 + y_F_3_1_5 <= 2
F_Ek2_3_1_5_4: E_3_4_5 + E_4_4_5 + y_F_3_1_5 <= 2
F_Ek2_3_2_0_1: E_3_0_1 + E_4_0_1 + y_F_3_2_0 <= 2
F_Ek2_3_2_0_3: E_3_0_3 + E_4_0_3 + y_F_3_2_0 <= 2
F_Ek2_3_2_0_4: E_3_0_4 + E_4_0_4 + y_F_3_2_0 <= 2
F_Ek2_3_2_0_5: E_3_0_5 + E_4_0_5 + y_F_3_2_0 <= 2
F_Ek2_3_2_1_0: E_3_0_1 + E_4_0_1 + y_F_3_2_1 <= 2
F_Ek2_3_2_1_3: E_3_1_3 + E_4_1_3 + y_F_3_2_1 <= 2
F_Ek2_3_2_1_4: E_3_1_4 + E_4_1_4 + y_F_3_2_1 <= 2
F_Ek2_3_2_1_5: E_3_1_5 + E_4_1_5 + y_F_3_2_1 <= 2
F_Ek2_3_2_3_0: E_3_0_3 + E_4_0_3 + y_F_3_2_3 <= 2
F_Ek2_3_2_3_1: E_3_1_3 + E_4_1_3 + y_F_3_2_3 <= 2
F_Ek2_3_2_3_4: E_3_3_4 + E_4_3_4 + y_F_3_2_3 <= 2
F_Ek2_3_2_3_5: E_3_3_5 + E_4_3_5 + y_F_3_2_3 <= 2
F_Ek2_3_2_4_0: E_3_0_4 + E_4_0_4 + y_F_3_2_4 <= 2
F_Ek2_3_2_4_1: E_3_1_4 + E_4_1_4 + y_F_3_2_4 <= 2
F_Ek2_3_2_4_3: E_3_3_4 + E_4_3_4 + y_F_3_2_4 <= 2
F_Ek2_3_2_4_5: E_3_4_5 + E_4_4_5 + y_F_3_2_4 <= 2
F_Ek2_3_2_5_0: E_3_0_5 + E_4_0_5 + y_F_3_2_5 <= 2
F_Ek2_3_2_5_1: E_3_1_5 + E_4_1_5 + y_F_3_2_5 <= 2
F_Ek2_3_2_5_3: E_3_3_5 + E_4_3_5 + y_F_3_2_5 <= 2
F_Ek2_3_2_5_4: E_3_4_5 + E_4_4_5 + y_F_3_2_5 <= 2
F_Ek2_3_3_0_1: E_3_0_1 + E_4_0_1 + y_F_3_3_0 <= 2
F_Ek2_3_3_0_2: E_3_0_2 + E_4_0_2 + y_F_3_3_0 <= 2
F_Ek2_3_3_0_4: E_3_0_4 + E_4_0_4 + y_F_3_3_0 <= 2
F_Ek2_3_3_0_5: E_3_0_5 + E_4_0_5 + y_F_3_3_0 <= 2
F_Ek2_3_3_1_0: E_3_0_1 + E_4_0_1 + y_F_3_3_1 <= 2
F_Ek2_3_3_1_2: E_3_1_2 + E_4_1_2 + y_F_3_3_1 <= 2
F_Ek2_3_3_1_4: E_3_1_4 + E_4_1_4 + y_F_3_3_1 <= 2
F_Ek2_3_3_1_5: E_3_1_5 + E_4_1_5 + y_F_3_3_1 <= 2
F_Ek2_3_3_2_0: E_3_0_2 + E_4_0_2 + y_F_3_3_2 <= 2
F_Ek2_3_3_2_1: E_3_1_2 + E_4_1_2 + y_F_3_3_2 <= 2
F_Ek2_3_3_2_4: E_3_2_4 + E_4_2_4 + y_F_3_3_2 <= 2
F_Ek2_3_3_2_5: E_3_2_5 + E_4_2_5 + y_F_3_3_2 <= 2
F_Ek2_3_3_4_0: E_3_0_4 + E_4_0_4 + y_F_3_3_4 <= 2
F_Ek2_3_3_4_1: E_3_1_4 + E_4_1_4 + y_F_3_3_4 <= 2
F_Ek2_3_3_4_2: E_3_2_4 + E_4_2_4 + y_F_3_3_4 <= 2
F_Ek2_3_3_4_5: E_3_4_5 + E_4_4_5 + y_F_3_3_4 <= 2
F_Ek2_3_3_5_0: E_3_0_5 + E_4_0_5 + y_F_3_3_5 <= 2
F_Ek2_3_3_5_1: E_3_1_5 + E_4_1_5 + y_F_3_3_5 <= 2
F_Ek2_3_3_5_2: E_3_2_5 + E_4_2_5 + y_F_3_3_5 <= 2
F_Ek2_3_3_5_4: E_3_4_5 + E_4_4_5 + y_F_3_3_5 <= 2
F_Ek2_3_4_0_1: E_3_0_1 + E_4_0_1 + y_F_3_4_0 <= 2
F_Ek2_3_4_0_2: E_3_0_2 + E_4_0_2 + y_F_3_4_0 <= 2
F_Ek2_3_4_0_3: E_3_0_3 + E_4_0_3 + y_F_3_4_0 <= 2
F_Ek2_3_4_0_5: E_3_0_5 + E_4_0_5 + y_F_3_4_0 <= 2
F_Ek2_3_4_1_0: E_3_0_1 + E_4_0_1 + y_F_3_4_1 <= 2
F_Ek2_3_4_1_2: E_3_1_2 + E_4_1_2 + y_F_3_4_1 <= 2
F_Ek2_3_4_1_3: E_3_1_3 + E_4_1_3 + y_F_3_4_1 <= 2
F_Ek2_3_4_1_5: E_3_1_5 + E_4_1_5 + y_F_3_4_1 <= 2
F_Ek2_3_4_2_0: E_3_0_2 + E_4_0_2 + y_F_3_4_2 <= 2
F_Ek2_3_4_2_1: E_3_1_2 + E_4_1_2 + y_F_3_4_2 <= 2
F_Ek2_3_4_2_3: E_3_2_3 + E_4_2_3 + y_F_3_4_2 <= 2
F_Ek2_3_4_2_5: E_3_2_5 + E_4_2_5 + y_F_3_4_2 <= 2
F_Ek2_3_4_3_0: E_3_0_3 + E_4_0_3 + y_F_3_4_3 <= 2
F_Ek2_3_4_3_1: E_3_1_3 + E_4_1_3 + y_F_3_4_3 <= 2
F_Ek2_3_4_3_2: E_3_2_3 + E_4_2_3 + y_F_3_4_3 <= 2
F_Ek2_3_4_3_5: E_3_3_5 + E_4_3_5 + y_F_3_4_3 <= 2
F_Ek2_3_4_5_0: E_3_0_5 + E_4_0_5 + y_F_3_4_5 <= 2
F_Ek2_3_4_5_1: E_3_1_5 + E_4_1_5 + y_F_3_4_5 <= 2
F_Ek2_3_4_5_2: E_3_2_5 + E_4_2_5 + y_F_3_4_5 <= 2
F_Ek2_3_4_5_3: E_3_3_5 + E_4_3_5 + y_F_3_4_5 <= 2
F_Ek2_3_5_0_1: E_3_0_1 + E_4_0_1 + y_F_3_5_0 <= 2
F_Ek2_3_5_0_2: E_3_0_2 + E_4_0_2 + y_F_3_5_0 <= 2
F_Ek2_3_5_0_3: E_3_0_3 + E_4_0_3 + y_F_3_5_0 <= 2
F_Ek2_3_5_0_4: E_3_0_4 + E_4_0_4 + y_F_3_5_0 <= 2
F_Ek2_3_5_1_0: E_3_0_1 + E_4_0_1 + y_F_3_5_1 <= 2
F_Ek2_3_5_1_2: E_3_1_2 + E_4_1_2 + y_F_3_5_1 <= 2
F_Ek2_3_5_1_3: E_3_1_3 + E_4_1_3 + y_F_3_5_1 <= 2
F_Ek2_3_5_1_4: E_3_1_4 + E_4_1_4 + y_F_3_5_1 <= 2
F_Ek2_3_5_2_0: E_3_0_2 + E_4_0_2 + y_F_3_5_2 <= 2
F_Ek2_3_5_2_1: E_3_1_2 + E_4_1_2 + y_F_3_5_2 <= 2
F_Ek2_3_5_2_3: E_3_2_3 + E_4_2_3 + y_F_3_5_2 <= 2
F_Ek2_3_5_2_4: E_3_2_4 + E_4_2_4 + y_F_3_5_2 <= 2
F_Ek2_3_5_3_0: E_3_0_3 + E_4_0_3 + y_F_3_5_3 <= 2
F_Ek2_3_5_3_1: E_3_1_3 + E_4_1_3 + y_F_3_5_3 <= 2
F_Ek2_3_5_3_2: E_3_2_3 + E_4_2_3 + y_F_3_5_3 <= 2
F_Ek2_3_5_3_4: E_3_3_4 + E_4_3_4 + y_F_3_5_3 <= 2
F_Ek2_3_5_4_0: E_3_0_4 + E_4_0_4 + y_F_3_5_4 <= 2
F_Ek2_3_5_4_1: E_3_1_4 + E_4_1_4 + y_F_3_5_4 <= 2
F_Ek2_3_5_4_2: E_3_2_4 + E_4_2_4 + y_F_3_5_4 <= 2
F_Ek2_3_5_4_3: E_3_3_4 + E_4_3_4 + y_F_3_5_4 <= 2
F_OnlyIf_LB_0_0_1_2: E_0_1_2 - 2 E_1_1_2 + y_F_0_0_1 <= 2
F_OnlyIf_LB_0_0_1_3: E_0_1_3 - 2 E_1_1_3 + y_F_0_0_1 <= 2
F_OnlyIf_LB_0_0_1_4: E_0_1_4 - 2 E_1_1_4 + y_F_0_0_1 <= 2
F_OnlyIf_LB_0_0_1_5: E_0_1_5 - 2 E_1_1_5 + y_F_0_0_1 <= 2
F_OnlyIf_LB_0_0_2_1: E_0_1_2 - 2 E_1_1_2 + y_F_0_0_2 <= 2
F_OnlyIf_LB_0_0_2_3: E_0_2_3 - 2 E_1_2_3 + y_F_0_0_2 <= 2
F_OnlyIf_LB_0_0_2_4: E_0_2_4 - 2 E_1_2_4 + y_F_0_0_2 <= 2
F_OnlyIf_LB_0_0_2_5: E_0_2_5 - 2 E_1_2_5 + y_F_0_0_2 <= 2
F_OnlyIf_LB_0_0_3_1: E_0_1_3 - 2 E_1_1_3 + y_F_0_0_3 <= 2
F_OnlyIf_LB_0_0_3_2: E_0_2_3 - 2 E_1_2_3 + y_F_0_0_3 <= 2
F_OnlyIf_LB_0_0_3_4: E_0_3_4 - 2 E_1_3_4 + y_F_0_0_3 <= 2
F_OnlyIf_LB_0_0_3_5: E_0_3_5 - 2 E_1_3_5 + y_F_0_0_3 <= 2
F_OnlyIf_LB_0_0_4_1: E_0_1_4 - 2 E_1_1_4 + y_F_0_0_4 <= 2
F_OnlyIf_LB_0_0_4_2: E_0_2_4 - 2 E_1_2_4 + y_F_0_0_4 <= 2
F_OnlyIf_LB_0_0_4_3: E_0_3_4 - 2 E_1_3_4 + y_F_0_0_4 <= 2
F_OnlyIf_LB_0_0_4_5: E_0_4_5 - 2 E_1_4_5 + y_F_0_0_4 <= 2
F_OnlyIf_LB_0_0_5_1: E_0_1_5 - 2 E_1_1_5 + y_F_0_0_5 <= 2
F_OnlyIf_LB_0_0_5_2: E_0_2_5 - 2 E_1_2_5 + y_F_0_0_5 <= 2
F_OnlyIf_LB_0_0_5_3: E_0_3_5 - 2 E_1_3_5 + y_F_0_0_5 <= 2
F_OnlyIf_LB_0_0_5_4: E_0_4_5 - 2 E_1_4_5 + y_F_0_0_5 <= 2
F_OnlyIf_LB_0_1_0_2: E_0_0_2 - 2 E_1_0_2 + y_F_0_1_0 <= 2
F_OnlyIf_LB_0_1_0_3: E_0_0_3 - 2 E_1_0_3 + y_F_0_1_0 <= 2
F_OnlyIf_LB_0_1_0_4: E_0_0_4 - 2 E_1_0_4 + y_F_0_1_0 <= 2
F_OnlyIf_LB_0_1_0_5: E_0_0_5 - 2 E_1_0_5 + y_F_0_1_0 <= 2
F_OnlyIf_LB_0_1_2_0: E_0_0_2 - 2 E_1_0_2 + y_F_0_1_2 <= 2
F_OnlyIf_LB_0_1_2_3: E_0_2_3 - 2 E_1_2_3 + y_F_0_1_2 <= 2
F_OnlyIf_LB_0_1_2_4: E_0_2_4 - 2 E_1_2_4 + y_F_0_1_2 <= 2
F_OnlyIf_LB_0_1_2_5: E_0_2_5 - 2 E_1_2_5 + y_F_0_1_2 <= 2
F_OnlyIf_LB_0_1_3_0: E_0_0_3 - 2 E_1_0_3 + y_F_0_1_3 <= 2
F_OnlyIf_LB_0_1_3_2: E_0_2_3 - 2 E_1_2_3 + y_F_0_1_3 <= 2
F_OnlyIf_LB_0_1_3_4: E_0_3_4 - 2 E_1_3_4 + y_F_0_1_3 <= 2
F_OnlyIf_LB_0_1_3_5: E_0_3_5 - 2 E_1_3_5 + y_F_0_1_3 <= 2
F_OnlyIf_LB_0_1_4_0: E_0_0_4 - 2 E_1_0_4 + y_F_0_1_4 <= 2
F_OnlyIf_LB_0_1_4_2: E_0_2_4 - 2 E_1_2_4 + y_F_0_1_4 <= 2
F_OnlyIf_LB_0_1_4_3: E_0_3_4 - 2 E_1_3_4 + y_F_0_1_4 <= 2
F_OnlyIf_LB_0_1_4_5: E_0_4_5 - 2 E_1_4_5 + y_F_0_1_4 <= 2
F_OnlyIf_LB_0_1_5_0: E_0_0_5 - 2 E_1_0_5 + y_F_0_1_5 <= 2
F_OnlyIf_LB_0_1_5_2: E_0_2_5 - 2 E_1_2_5 + y_F_0_1_5 <= 2
F_OnlyIf_LB_0_1_5_3: E_0_3_5 - 2 E_1_3_5 + y_F_0_1_5 <= 2
F_OnlyIf_LB_0_1_5_4: E_0_4_5 - 2 E_1_4_5 + y_F_0_1_5 <= 2
F_OnlyIf_LB_0_2_0_1: E_0_0_1 - 2 E_1_0_1 + y_F_0_2_0 <= 2
F_OnlyIf_LB_0_2_0_3: E_0_0_3 - 2 E_1_0_3 + y_F_0_2_0 <= 2
F_OnlyIf_LB_0_2_0_4: E_0_0_4 - 2 E_1_0_4 + y_F_0_2_0 <= 2
F_OnlyIf_LB_0_2_0_5: E_0_0_5 - 2 E_1_0_5 + y_F_0_2_0 <= 2
F_OnlyIf_LB_0_2_1_0: E_0_0_1 - 2 E_1_0_1 + y_F_0_2_1 <= 2
F_OnlyIf_LB_0_2_1_3: E_0_1_3 - 2 E_1_1_3 + y_F_0_2_1 <= 2
F_OnlyIf_LB_0_2_1_4: E_0_1_4 - 2 E_1_1_4 + y_F_0_2_1 <= 2
F_OnlyIf_LB_0_2_1_5: E_0_1_5 - 2 E_1_1_5 + y_F_0_2_1 <= 2
F_OnlyIf_LB_0_2_3_0: E_0_0_3 - 2 E_1_0_3 + y_F_0_2_3 <= 2
F_OnlyIf_LB_0_2_3_1: E_0_1_3 - 2 E_1_1_3 + y_F_0_2_3 <= 2
F_OnlyIf_LB_0_2_3_4: E_0_3_4 - 2 E_1_3_4 + y_F_0_2_3 <= 2
F_OnlyIf_LB_0_2_3_5: E_0_3_5 - 2 E_1_3_5 + y_F_0_2_3 <= 2
F_OnlyIf_LB_0_2_4_0: E_0_0_4 - 2 E_1_0_4 + y_F_0_2_4 <= 2
F_OnlyIf_LB_0_2_4_1: E_0_1_4 - 2 E_1_1_4 + y_F_0_2_4 <= 2
F_OnlyIf_LB_0_2_4_3: E_0_3_4 - 2 E_1_3_4 + y_F_0_2_4 <= 2
F_OnlyIf_LB_0_2_4_5: E_0_4_5 - 2 E_1_4_5 + y_F_0_2_4 <= 2
F_OnlyIf_LB_0_2_5_0: E_0_0_5 - 2 E_1_0_5 + y_F_0_2_5 <= 2
F_OnlyIf_LB_0_2_5_1: E_0_1_5 - 2 E_1_1_5 + y_F_0_2_5 <= 2
F_OnlyIf_LB_0_2_5_3: E_0_3_5 - 2 E_1_3_5 + y_F_0_2_5 <= 2
F_OnlyIf_LB_0_2_5_4: E_0_4_5 - 2 E_1_4_5 + y_F_0_2_5 <= 2
F_OnlyIf_LB_0_3_0_1: E_0_0_1 - 2 E_1_0_1 + y_F_0_3_0 <= 2
F_OnlyIf_LB_0_3_0_2: E_0_0_2 - 2 E_1_0_2 + y_F_0_3_0 <= 2
F_OnlyIf_LB_0_3_0_4: E_0_0_4 - 2 E_1_0_4 + y_F_0_3_0 <= 2
F_OnlyIf_LB_0_3_0_5: E_0_0_5 - 2 E_1_0_5 + y_F_0_3_0 <= 2
F_OnlyIf_LB_0_3_1_0: E_0_0_1 - 2 E_1_0_1 + y_F_0_3_1 <= 2
F_OnlyIf_LB_0_3_1_2: E_0_1_2 - 2 E_1_1_2 + y_F_0_3_1 <= 2
F_OnlyIf_LB_0_3_1_4: E_0_1_4 - 2 E_1_1_4 + y_F_0_3_1 <= 2
F_OnlyIf_LB_0_3_1_5: E_0_1_5 - 2 E_1_1_5 + y_F_0_3_1 <= 2
F_OnlyIf_LB_0_3_2_0: E_0_0_2 - 2 E_1_0_2 + y_F_0_3_2 <= 2
F_OnlyIf_LB_0_3_2_1: E_0_1_2 - 2 E_1_1_2 + y_F_0_3_2 <= 2
F_OnlyIf_LB_0_3_2_4: E_0_2_4 - 2 E_1_2_4 + y_F_0_3_2 <= 2
F_OnlyIf_LB_0_3_2_5: E_0_2_5 - 2 E_1_2_5 + y_F_0_3_2 <= 2
F_OnlyIf_LB_0_3_4_0: E_0_0_4 - 2 E_1_0_4 + y_F_0_3_4 <= 2
F_OnlyIf_LB_0_3_4_1: E_0_1_4 - 2 E_1_1_4 + y_F_0_3_4 <= 2
F_OnlyIf_LB_0_3_4_2: E_0_2_4 - 2 E_1_2_4 + y_F_0_3_4 <= 2
F_OnlyIf_LB_0_3_4_5: E_0_4_5 - 2 E_1_4_5 + y_F_0_3_4 <= 2
F_OnlyIf_LB_0_3_5_0: E_0_0_5 - 2 E_1_0_5 + y_F_0_3_5 <= 2
F_OnlyIf_LB_0_3_5_1: E_0_1_5 - 2 E_1_1_5 + y_F_0_3_5 <= 2
F_OnlyIf_LB_0_3_5_2: E_0_2_5 - 2 E_1_2_5 + y_F_0_3_5 <= 2
F_OnlyIf_LB_0_3_5_4: E_0_4_5 - 2 E_1_4_5 + y_F_0_3_5 <= 2
F_OnlyIf_LB_0_4_0_1: E_0_0_1 - 2 E_1_0_1 + y_F_0_4_0 <= 2
F_OnlyIf_LB_0_4_0_2: E_0_0_2 - 2 E_1_0_2 + y_F_0_4_0 <= 2
F_OnlyIf_LB_0_4_0_3: E_0_0_3 - 2 E_1_0_3 + y_F_0_4_0 <= 2
F_OnlyIf_LB_0_4_0_5: E_0_0_5 - 2 E_1_0_5 + y_F_0_4_0 <= 2
F_OnlyIf_LB_0_4_1_0: E_0_0_1 - 2 E_1_0_1 + y_F_0_4_1 <= 2
F_OnlyIf_LB_0_4_1_2: E_0_1_2 - 2 E_1_1_2 + y_F_0_4_1 <= 2
F_OnlyIf_LB_0_4_1_3: E_0_1_3 - 2 E_1_1_3 + y_F_0_4_1 <= 2
F_OnlyIf_LB_0_4_1_5: E_0_1_5 - 2 E_1_1_5 + y_F_0_4_1 <= 2
F_OnlyIf_LB_0_4_2_0: E_0_0_2 - 2 E_1_0_2 + y_F_0_4_2 <= 2
F_OnlyIf_LB_0_4_2_1: E_0_1_2 - 2 E_1_1_2 + y_F_0_4_2 <= 2
F_OnlyIf_LB_0_4_2_3: E_0_2_3 - 2 E_1_2_3 + y_F_0_4_2 <= 2
F_OnlyIf_LB_0_4_2_5: E_0_2_5 - 2 E_1_2_5 + y_F_0_4_2 <= 2
F_OnlyIf_LB_0_4_3_0: E_0_0_3 - 2 E_1_0_3 + y_F_0_4_3 <= 2
F_OnlyIf_LB_0_4_3_1: E_0_1_3 - 2 E_1_1_3 + y_F_0_4_3 <= 2
F_OnlyIf_LB_0_4_3_2: E_0_2_3 - 2 E_1_2_3 + y_F_0_4_3 <= 2
F_OnlyIf_LB_0_4_3_5: E_0_3_5 - 2 E_1_3_5 + y_F_0_4_3 <= 2
F_OnlyIf_LB_0_4_5_0: E_0_0_5 - 2 E_1_0_5 + y_F_0_4_5 <= 2
F_OnlyIf_LB_0_4_5_1: E_0_1_5 - 2 E_1_1_5 + y_F_0_4_5 <= 2
F_OnlyIf_LB_0_4_5_2: E_0_2_5 - 2 E_1_2_5 + y_F_0_4_5 <= 2
F_OnlyIf_LB_0_4_5_3: E_0_3_5 - 2 E_1_3_5 + y_F_0_4_5 <= 2
F_OnlyIf_LB_0_5_0_1: E_0_0_1 - 2 E_1_0_1 + y_F_0_5_0 <= 2
F_OnlyIf_LB_0_5_0_2: E_0_0_2 - 2 E_1_0_2 + y_F_0_5_0 <= 2
F_OnlyIf_LB_0_5_0_3: E_0_0_3 - 2 E_1_0_3 + y_F_0_5_0 <= 2
F_OnlyIf_LB_0_5_0_4: E_0_0_4 - 2 E_1_0_4 + y_F_0_5_0 <= 2
F_OnlyIf_LB_0_5_1_0: E_0_0_1 - 2 E_1_0_1 + y_F_0_5_1 <= 2
F_OnlyIf_LB_0_5_1_2: E_0_1_2 - 2 E_1_1_2 + y_F_0_5_1 <= 2
F_OnlyIf_LB_0_5_1_3: E_0_1_3 - 2 E_1_1_3 + y_F_0_5_1 <= 2
F_OnlyIf_LB_0_5_1_4: E_0_1_4 - 2 E_1_1_4 + y_F_0_5_1 <= 2
F_OnlyIf_LB_0_5_2_0: E_0_0_2 - 2 E_1_0_2 + y_F_0_5_2 <= 2
F_OnlyIf_LB_0_5_2_1: E_0_1_2 - 2 E_1_1_2 + y_F_0_5_2 <= 2
F_OnlyIf_LB_0_5_2_3: E_0_2_3 - 2 E_1_2_3 + y_F_0_5_2 <= 2
F_OnlyIf_LB_0_5_2_4: E_0_2_4 - 2 E_1_2_4 + y_F_0_5_2 <= 2
F_OnlyIf_LB_0_5_3_0: E_0_0_3 - 2 E_1_0_3 + y_F_0_5_3 <= 2
F_OnlyIf_LB_0_5_3_1: E_0_1_3 - 2 E_1_1_3 + y_F_0_5_3 <= 2
F_OnlyIf_LB_0_5_3_2: E_0_2_3 - 2 E_1_2_3 + y_F_0_5_3 <= 2
F_OnlyIf_LB_0_5_3_4: E_0_3_4 - 2 E_1_3_4 + y_F_0_5_3 <= 2
F_OnlyIf_LB_0_5_4_0: E_0_0_4 - 2 E_1_0_4 + y_F_0_5_4 <= 2
F_OnlyIf_LB_0_5_4_1: E_0_1_4 - 2 E_1_1_4 + y_F_0_5_4 <= 2
F_OnlyIf_LB_0_5_4_2: E_0_2_4 - 2 E_1_2_4 + y_F_0_5_4 <= 2
F_OnlyIf_LB_0_5_4_3: E_0_3_4 - 2 E_1_3_4 + y_F_0_5_4 <= 2
F_OnlyIf_LB_1_0_1_2: E_1_1_2 - 2 E_2_1_2 + y_F_1_0_1 <= 2
F_OnlyIf_LB_1_0_1_3: E_1_1_3 - 2 E_2_1_3 + y_F_1_0_1 <= 2
F_OnlyIf_LB_1_0_1_4: E_1_1_4 - 2 E_2_1_4 + y_F_1_0_1 <= 2
F_OnlyIf_LB_1_0_1_5: E_1_1_5 - 2 E_2_1_5 + y_F_1_0_1 <= 2
F_OnlyIf_LB_1_0_2_1: E_1_1_2 - 2 E_2_1_2 + y_F_1_0_2 <= 2
F_OnlyIf_LB_1_0_2_3: E_1_2_3 - 2 E_2_2_3 + y_F_1_0_2 <= 2
F_OnlyIf_LB_1_0_2_4: E_1_2_4 - 2 E_2_2_4 + y_F_1_0_2 <= 2
F_OnlyIf_LB_1_0_2_5: E_1_2_5 - 2 E_2_2_5 + y_F_1_0_2 <= 2
F_OnlyIf_LB_1_0_3_1: E_1_1_3 - 2 E_2_1_3 + y_F_1_0_3 <= 2
F_OnlyIf_LB_1_0_3_2: E_1_2_3 - 2 E_2_2_3 + y_F_1_0_3 <= 2
F_OnlyIf_LB_1_0_3_4: E_1_3_4 - 2 E_2_3_4 + y_F_1_0_3 <= 2
F_OnlyIf_LB_1_0_3_5: E_1_3_5 - 2 E_2_3_5 + y_F_1_0_3 <= 2
F_OnlyIf_LB_1_0_4_1: E_1_1_4 - 2 E_2_1_4 + y_F_1_0_4 <= 2
F_OnlyIf_LB_1_0_4_2: E_1_2_4 - 2 E_2_2_4 + y_F_1_0_4 <= 2
F_OnlyIf_LB_1_0_4_3: E_1_3_4 - 2 E_2_3_4 + y_F_1_0_4 <= 2
F_OnlyIf_LB_1_0_4_5: E_1_4_5 - 2 E_2_4_5 + y_F_1_0_4 <= 2
F_OnlyIf_LB_1_0_5_1: E_1_1_5 - 2 E_2_1_5 + y_F_1_0_5 <= 2
F_OnlyIf_LB_1_0_5_2: E_1_2_5 - 2 E_2_2_5 + y_F_1_0_5 <= 2
F_OnlyIf_LB_1_0_5_3: E_1_3_5 - 2 E_2_3_5 + y_F_1_0_5 <= 2
F_OnlyIf_LB_1_0_5_4: E_1_4_5 - 2 E_2_4_5 + y_F_1_0_5 <= 2
F_OnlyIf_LB_1_1_0_2: E_1_0_2 - 2 E_2_0_2 + y_F_1_1_0 <= 2
F_OnlyIf_LB_1_1_0_3: E_1_0_3 - 2 E_2_0_3 + y_F_1_1_0 <= 2
F_OnlyIf_LB_1_1_0_4: E_1_0_4 - 2 E_2_0_4 + y_F_1_1_0 <= 2
F_OnlyIf_LB_1_1_0_5: E_1_0_5 - 2 E_2_0_5 + y_F_1_1_0 <= 2
F_OnlyIf_LB_1_1_2_0: E_1_0_2 - 2 E_2_0_2 + y_F_1_1_2 <= 2
F_OnlyIf_LB_1_1_2_3: E_1_2_3 - 2 E_2_2_3 + y_F_1_1_2 <= 2
F_OnlyIf_LB_1_1_2_4: E_1_2_4 - 2 E_2_2_4 + y_F_1_1_2 <= 2
F_OnlyIf_LB_1_1_2_5: E_1_2_5 - 2 E_2_2_5 + y_F_1_1_2 <= 2
F_OnlyIf_LB_1_1_3_0: E_1_0_3 - 2 E_2_0_3 + y_F_1_1_3 <= 2
F_OnlyIf_LB_1_1_3_2: E_1_2_3 - 2 E_2_2_3 + y_F_1_1_3 <= 2
F_OnlyIf_LB_1_1_3_4: E_1_3_4 - 2 E_2_3_4 + y_F_1_1_3 <= 2
F_OnlyIf_LB_1_1_3_5: E_1_3_5 - 2 E_2_3_5 + y_F_1_1_3 <= 2
F_OnlyIf_LB_1_1_4_0: E_1_0_4 - 2 E_2_0_4 + y_F_1_1_4 <= 2
F_OnlyIf_LB_1_1_4_2: E_1_2_4 - 2 E_2_2_4 + y_F_1_1_4 <= 2
F_OnlyIf_LB_1_1_4_3: E_1_3_4 - 2 E_2_3_4 + y_F_1_1_4 <= 2
F_OnlyIf_LB_1_1_4_5: E_1_4_5 - 2 E_2_4_5 + y_F_1_1_4 <= 2
F_OnlyIf_LB_1_1_5_0: E_1_0_5 - 2 E_2_0_5 + y_F_1_1_5 <= 2
F_OnlyIf_LB_1_1_5_2: E_1_2_5 - 2 E_2_2_5 + y_F_1_1_5 <= 2
F_OnlyIf_LB_1_1_5_3: E_1_3_5 - 2 E_2_3_5 + y_F_1_1_5 <= 2
F_OnlyIf_LB_1_1_5_4: E_1_4_5 - 2 E_2_4_5 + y_F_1_1_5 <= 2
F_OnlyIf_LB_1_2_0_1: E_1_0_1 - 2 E_2_0_1 + y_F_1_2_0 <= 2
F_OnlyIf_LB_1_2_0_3: E_1_0_3 - 2 E_2_0_3 + y_F_1_2_0 <= 2
F_OnlyIf_LB_1_2_0_4: E_1_0_4 - 2 E_2_0_4 + y_F_1_2_0 <= 2
F_OnlyIf_LB_1_2_0_5: E_1_0_5 - 2 E_2_0_5 + y_F_1_2_0 <= 2
F_OnlyIf_LB_1_2_1_0: E_1_0_1 - 2 E_2_0_1 + y_F_1_2_1 <= 2
F_OnlyIf_LB_1_2_1_3: E_1_1_3 - 2 E_2_1_3 + y_F_1_2_1 <= 2
F_OnlyIf_LB_1_2_1_4: E_1_1_4 - 2 E_2_1_4 + y_F_1_2_1 <= 2
F_OnlyIf_LB_1_2_1_5: E_1_1_5 - 2 E_2_1_5 + y_F_1_2_1 <= 2
F_OnlyIf_LB_1_2_3_0: E_1_0_3 - 2 E_2_0_3 + y_F_1_2_3 <= 2
F_OnlyIf_LB_1_2_3_1: E_1_1_3 - 2 E_2_1_3 + y_F_1_2_3 <= 2
F_OnlyIf_LB_1_2_3_4: E_1_3_4 - 2 E_2_3_4 + y_F_1_2_3 <= 2
F_OnlyIf_LB_1_2_3_5: E_1_3_5 - 2 E_2_3_5 + y_F_1_2_3 <= 2
F_OnlyIf_LB_1_2_4_0: E_1_0_4 - 2 E_2_0_4 + y_F_1_2_4 <= 2
F_OnlyIf_LB_1_2_4_1: E_1_1_4 - 2 E_2_1_4 + y_F_1_2_4 <= 2
F_OnlyIf_LB_1_2_4_3: E_1_3_4 - 2 E_2_3_4 + y_F_1_2_4 <= 2
F_OnlyIf_LB_1_2_4_5: E_1_4_5 - 2 E_2_4_5 + y_F_1_2_4 <= 2
F_OnlyIf_LB_1_2_5_0: E_1_0_5 - 2 E_2_0_5 + y_F_1_2_5 <= 2
F_OnlyIf_LB_1_2_5_1: E_1_1_5 - 2 E_2_1_5 + y_F_1_2_5 <= 2
F_OnlyIf_LB_1_2_5_3: E_1_3_5 - 2 E_2_3_5 + y_F_1_2_5 <= 2
F_OnlyIf_LB_1_2_5_4: E_1_4_5 - 2 E_2_4_5 + y_F_1_2_5 <= 2
F_OnlyIf_LB_1_3_0_1: E_1_0_1 - 2 E_2_0_1 + y_F_1_3_0 <= 2
F_OnlyIf_LB_1_3_0_2: E_1_0_2 - 2 E_2_0_2 + y_F_1_3_0 <= 2
F_OnlyIf_LB_1_3_0_4: E_1_0_4 - 2 E_2_0_4 + y_F_1_3_0 <= 2
F_OnlyIf_LB_1_3_0_5: E_1_0_5 - 2 E_2_0_5 + y_F_1_3_0 <= 2
F_OnlyIf_LB_1_3_1_0: E_1_0_1 - 2 E_2_0_1 + y_F_1_3_1 <= 2
F_OnlyIf_LB_1_3_1_2: E_1_1_2 - 2 E_2_1_2 + y_F_1_3_1 <= 2
F_OnlyIf_LB_1_3_1_4: E_1_1_4 - 2 E_2_1_4 + y_F_1_3_1 <= 2
F_OnlyIf_LB_1_3_1_5: E_1_1_5 - 2 E_2_1_5 + y_F_1_3_1 <= 2
F_OnlyIf_LB_1_3_2_0: E_1_0_2 - 2 E_2_0_2 + y_F_1_3_2 <= 2
F_OnlyIf_LB_1_3_2_1: E_1_1_2 - 2 E_2_1_2 + y_F_1_3_2 <= 2
F_OnlyIf_LB_1_3_2_4: E_1_2_4 - 2 E_2_2_4 + y_F_1_3_2 <= 2
F_OnlyIf_LB_1_3_2_5: E_1_2_5 - 2 E_2_2_5 + y_F_1_3_2 <= 2
F_OnlyIf_LB_1_3_4_0: E_1_0_4 - 2 E_2_0_4 + y_F_1_3_4 <= 2
F_OnlyIf_LB_1_3_4_1: E_1_1_4 - 2 E_2_1_4 + y_F_1_3_4 <= 2
F_OnlyIf_LB_1_3_4_2: E_1_2_4 - 2 E_2_2_4 + y_F_1_3_4 <= 2
F_OnlyIf_LB_1_3_4_5: E_1_4_5 - 2 E_2_4_5 + y_F_1_3_4 <= 2
F_OnlyIf_LB_1_3_5_0: E_1_0_5 - 2 E_2_0_5 + y_F_1_3_5 <= 2
F_OnlyIf_LB_1_3_5_1: E_1_1_5 - 2 E_2_1_5 + y_F_1_3_5 <= 2
F_OnlyIf_LB_1_3_5_2: E_1_2_5 - 2 E_2_2_5 + y_F_1_3_5 <= 2
F_OnlyIf_LB_1_3_5_4: E_1_4_5 - 2 E_2_4_5 + y_F_1_3_5 <= 2
F_OnlyIf_LB_1_4_0_1: E_1_0_1 - 2 E_2_0_1 + y_F_1_4_0 <= 2
F_OnlyIf_LB_1_4_0_2: E_1_0_2 - 2 E_2_0_2 + y_F_1_4_0 <= 2
F_OnlyIf_LB_1_4_0_3: E_1_0_3 - 2 E_2_0_3 + y_F_1_4_0 <= 2
F_OnlyIf_LB_1_4_0_5: E_1_0_5 - 2 E_2_0_5 + y_F_1_4_0 <= 2
F_OnlyIf_LB_1_4_1_0: E_1_0_1 - 2 E_2_0_1 + y_F_1_4_1 <= 2
F_OnlyIf_LB_1_4_1_2: E_1_1_2 - 2 E_2_1_2 + y_F_1_4_1 <= 2
F_OnlyIf_LB_1_4_1_3: E_1_1_3 - 2 E_2_1_3 + y_F_1_4_1 <= 2
F_OnlyIf_LB_1_4_1_5: E_1_1_5 - 2 E_2_1_5 + y_F_1_4_1 <= 2
F_OnlyIf_LB_1_4_2_0: E_1_0_2 - 2 E_2_0_2 + y_F_1_4_2 <= 2
F_OnlyIf_LB_1_4_2_1: E_1_1_2 - 2 E_2_1_2 + y_F_1_4_2 <= 2
F_OnlyIf_LB_1_4_2_3: E_1_2_3 - 2 E_2_2_3 + y_F_1_4_2 <= 2
F_OnlyIf_LB_1_4_2_5: E_1_2_5 - 2 E_2_2_5 + y_F_1_4_2 <= 2
F_OnlyIf_LB_1_4_3_0: E_1_0_3 - 2 E_2_0_3 + y_F_1_4_3 <= 2
F_OnlyIf_LB_1_4_3_1: E_1_1_3 - 2 E_2_1_3 + y_F_1_4_3 <= 2
F_OnlyIf_LB_1_4_3_2: E_1_2_3 - 2 E_2_2_3 + y_F_1_4_3 <= 2
F_OnlyIf_LB_1_4_3_5: E_1_3_5 - 2 E_2_3_5 + y_F_1_4_3 <= 2
F_OnlyIf_LB_1_4_5_0: E_1_0_5 - 2 E_2_0_5 + y_F_1_4_5 <= 2
F_OnlyIf_LB_1_4_5_1: E_1_1_5 - 2 E_2_1_5 + y_F_1_4_5 <= 2
F_OnlyIf_LB_1_4_5_2: E_1_2_5 - 2 E_2_2_5 + y_F_1_4_5 <= 2
F_OnlyIf_LB_1_4_5_3: E_1_3_5 - 2 E_2_3_5 + y_F_1_4_5 <= 2
F_OnlyIf_LB_1_5_0_1: E_1_0_1 - 2 E_2_0_1 + y_F_1_5_0 <= 2
F_OnlyIf_LB_1_5_0_2: E_1_0_2 - 2 E_2_0_2 + y_F_1_5_0 <= 2
F_OnlyIf_LB_1_5_0_3: E_1_0_3 - 2 E_2_0_3 + y_F_1_5_0 <= 2
F_OnlyIf_LB_1_5_0_4: E_1_0_4 - 2 E_2_0_4 + y_F_1_5_0 <= 2
F_OnlyIf_LB_1_5_1_0: E_1_0_1 - 2 E_2_0_1 + y_F_1_5_1 <= 2
F_OnlyIf_LB_1_5_1_2: E_1_1_2 - 2 E_2_1_2 + y_F_1_5_1 <= 2
F_OnlyIf_LB_1_5_1_3: E_1_1_3 - 2 E_2_1_3 + y_F_1_5_1 <= 2
F_OnlyIf_LB_1_5_1_4: E_1_1_4 - 2 E_2_1_4 + y_F_1_5_1 <= 2
F_OnlyIf_LB_1_5_2_0: E_1_0_2 - 2 E_2_0_2 + y_F_1_5_2 <= 2
F_OnlyIf_LB_1_5_2_1: E_1_1_2 - 2 E_2_1_2 + y_F_1_5_2 <= 2
F_OnlyIf_LB_1_5_2_3: E_1_2_3 - 2 E_2_2_3 + y_F_1_5_2 <= 2
F_OnlyIf_LB_1_5_2_4: E_1_2_4 - 2 E_2_2_4 + y_F_1_5_2 <= 2
F_OnlyIf_LB_1_5_3_0: E_1_0_3 - 2 E_2_0_3 + y_F_1_5_3 <= 2
F_OnlyIf_LB_1_5_3_1: E_1_1_3 - 2 E_2_1_3 + y_F_1_5_3 <= 2
F_OnlyIf_LB_1_5_3_2: E_1_2_3 - 2 E_2_2_3 + y_F_1_5_3 <= 2
F_OnlyIf_LB_1_5_3_4: E_1_3_4 - 2 E_2_3_4 + y_F_1_5_3 <= 2
F_OnlyIf_LB_1_5_4_0: E_1_0_4 - 2 E_2_0_4 + y_F_1_5_4 <= 2
F_OnlyIf_LB_1_5_4_1: E_1_1_4 - 2 E_2_1_4 + y_F_1_5_4 <= 2
F_OnlyIf_LB_1_5_4_2: E_1_2_4 - 2 E_2_2_4 + y_F_1_5_4 <= 2
F_OnlyIf_LB_1_5_4_3: E_1_3_4 - 2 E_2_3_4 + y_F_1_5_4 <= 2
F_OnlyIf_LB_2_0_1_2: E_2_1_2 - 2 E_3_1_2 + y_F_2_0_1 <= 2
F_OnlyIf_LB_2_0_1_3: E_2_1_3 - 2 E_3_1_3 + y_F_2_0_1 <= 2
F_OnlyIf_LB_2_0_1_4: E_2_1_4 - 2 E_3_1_4 + y_F_2_0_1 <= 2
F_OnlyIf_LB_2_0_1_5: E_2_1_5 - 2 E_3_1_5 + y_F_2_0_1 <= 2
F_OnlyIf_LB_2_0_2_1: E_2_1_2 - 2 E_3_1_2 + y_F_2_0_2 <= 2
F_OnlyIf_LB_2_0_2_3: E_2_2_3 - 2 E_3_2_3 + y_F_2_0_2 <= 2
F_OnlyIf_LB_2_0_2_4: E_2_2_4 - 2 E_3_2_4 + y_F_2_0_2 <= 2
F_OnlyIf_LB_2_0_2_5: E_2_2_5 - 2 E_3_2_5 + y_F_2_0_2 <= 2
F_OnlyIf_LB_2_0_3_1: E_2_1_3 - 2 E_3_1_3 + y_F_2_0_3 <= 2
F_OnlyIf_LB_2_0_3_2: E_2_2_3 - 2 E_3_2_3 + y_F_2_0_3 <= 2
F_OnlyIf_LB_2_0_3_4: E_2_3_4 - 2 E_3_3_4 + y_F_2_0_3 <= 2
F_OnlyIf_LB_2_0_3_5: E_2_3_5 - 2 E_3_3_5 + y_F_2_0_3 <= 2
F_OnlyIf_LB_2_0_4_1: E_2_1_4 - 2 E_3_1_4 + y_F_2_0_4 <= 2
F_OnlyIf_LB_2_0_4_2: E_2_2_4 - 2 E_3_2_4 + y_F_2_0_4 <= 2
F_OnlyIf_LB_2_0_4_3: E_2_3_4 - 2 E_3_3_4 + y_F_2_0_4 <= 2
F_OnlyIf_LB_2_0_4_5: E_2_4_5 - 2 E_3_4_5 + y_F_2_0_4 <= 2
F_OnlyIf_LB_2_0_5_1: E_2_1_5 - 2 E_3_1_5 + y_F_2_0_5 <= 2
F_OnlyIf_LB_2_0_5_2: E_2_2_5 - 2 E_3_2_5 + y_F_2_0_5 <= 2
F_OnlyIf_LB_2_0_5_3: E_2_3_5 - 2 E_3_3_5 + y_F_2_0_5 <= 2
F_OnlyIf_LB_2_0_5_4: E_2_4_5 - 2 E_3_4_5 + y_F_2_0_5 <= 2
F_OnlyIf_LB_2_1_0_2: E_2_0_2 - 2 E_3_0_2 + y_F_2_1_0 <= 2
F_OnlyIf_LB_2_1_0_3: E_2_0_3 - 2 E_3_0_3 + y_F_2_1_0 <= 2
F_OnlyIf_LB_2_1_0_4: E_2_0_4 - 2 E_3_0_4 + y_F_2_1_0 <= 2
F_OnlyIf_LB_2_1_0_5: E_2_0_5 - 2 E_3_0_5 + y_F_2_1_0 <= 2
F_OnlyIf_LB_2_1_2_0: E_2_0_2 - 2 E_3_0_2 + y_F_2_1_2 <= 2
F_OnlyIf_LB_2_1_2_3: E_2_2_3 - 2 E_3_2_3 + y_F_2_1_2 <= 2
F_OnlyIf_LB_2_1_2_4: E_2_2_4 - 2 E_3_2_4 + y_F_2_1_2 <= 2
F_OnlyIf_LB_2_1_2_5: E_2_2_5 - 2 E_3_2_5 + y_F_2_1_2 <= 2
F_OnlyIf_LB_2_1_3_0: E_2_0_3 - 2 E_3_0_3 + y_F_2_1_3 <= 2
F_OnlyIf_LB_2_1_3_2: E_2_2_3 - 2 E_3_2_3 + y_F_2_1_3 <= 2
F_OnlyIf_LB_2_1_3_4: E_2_3_4 - 2 E_3_3_4 + y_F_2_1_3 <= 2
F_OnlyIf_LB_2_1_3_5: E_2_3_5 - 2 E_3_3_5 + y_F_2_1_3 <= 2
F_OnlyIf_LB_2_1_4_0: E_2_0_4 - 2 E_3_0_4 + y_F_2_1_4 <= 2
F_OnlyIf_LB_2_1_4_2: E_2_2_4 - 2 E_3_2_4 + y_F_2_1_4 <= 2
F_OnlyIf_LB_2_1_4_3: E_2_3_4 - 2 E_3_3_4 + y_F_2_1_4 <= 2
F_OnlyIf_LB_2_1_4_5: E_2_4_5 - 2 E_3_4_5 + y_F_2_1_4 <= 2
F_OnlyIf_LB_2_1_5_0: E_2_0_5 - 2 E_3_0_5 + y_F_2_1_5 <= 2
F_OnlyIf_LB_2_1_5_2: E_2_2_5 - 2 E_3_2_5 + y_F_2_1_5 <= 2
F_OnlyIf_LB_2_1_5_3: E_2_3_5 - 2 E_3_3_5 + y_F_2_1_5 <= 2
F_OnlyIf_LB_2_1_5_4: E_2_4_5 - 2 E_3_4_5 + y_F_2_1_5 <= 2
F_OnlyIf_LB_2_2_0_1: E_2_0_1 - 2 E_3_0_1 + y_F_2_2_0 <= 2
F_OnlyIf_LB_2_2_0_3: E_2_0_3 - 2 E_3_0_3 + y_F_2_2_0 <= 2
F_OnlyIf_LB_2_2_0_4: E_2_0_4 - 2 E_3_0_4 + y_F_2_2_0 <= 2
F_OnlyIf_LB_2_2_0_5: E_2_0_5 - 2 E_3_0_5 + y_F_2_2_0 <= 2
F_OnlyIf_LB_2_2_1_0: E_2_0_1 - 2 E_3_0_1 + y_F_2_2_1 <= 2
F_OnlyIf_LB_2_2_1_3: E_2_1_3 - 2 E_3_1_3 + y_F_2_2_1 <= 2
F_OnlyIf_LB_2_2_1_4: E_2_1_4 - 2 E_3_1_4 + y_F_2_2_1 <= 2
F_OnlyIf_LB_2_2_1_5: E_2_1_5 - 2 E_3_1_5 + y_F_2_2_1 <= 2
F_OnlyIf_LB_2_2_3_0: E_2_0_3 - 2 E_3_0_3 + y_F_2_2_3 <= 2
F_OnlyIf_LB_2_2_3_1: E_2_1_3 - 2 E_3_1_3 + y_F_2_2_3 <= 2
F_OnlyIf_LB_2_2_3_4: E_2_3_4 - 2 E_3_3_4 + y_F_2_2_3 <= 2
F_OnlyIf_LB_2_2_3_5: E_2_3_5 - 2 E_3_3_5 + y_F_2_2_3 <= 2
F_OnlyIf_LB_2_2_4_0: E_2_0_4 - 2 E_3_0_4 + y_F_2_2_4 <= 2
F_OnlyIf_LB_2_2_4_1: E_2_1_4 - 2 E_3_1_4 + y_F_2_2_4 <= 2
F_OnlyIf_LB_2_2_4_3: E_2_3_4 - 2 E_3_3_4 + y_F_2_2_4 <= 2
F_OnlyIf_LB_2_2_4_5: E_2_4_5 - 2 E_3_4_5 + y_F_2_2_4 <= 2
F_OnlyIf_LB_2_2_5_0: E_2_0_5 - 2 E_3_0_5 + y_F_2_2_5 <= 2
F_OnlyIf_LB_2_2_5_1: E_2_1_5 - 2 E_3_1_5 + y_F_2_2_5 <= 2
F_OnlyIf_LB_2_2_5_3: E_2_3_5 - 2 E_3_3_5 + y_F_2_2_5 <= 2
F_OnlyIf_LB_2_2_5_4: E_2_4_5 - 2 E_3_4_5 + y_F_2_2_5 <= 2
F_OnlyIf_LB_2_3_0_1: E_2_0_1 - 2 E_3_0_1 + y_F_2_3_0 <= 2
F_OnlyIf_LB_2_3_0_2: E_2_0_2 - 2 E_3_0_2 + y_F_2_3_0 <= 2
F_OnlyIf_LB_2_3_0_4: E_2_0_4 - 2 E_3_0_4 + y_F_2_3_0 <= 2
F_OnlyIf_LB_2_3_0_5: E_2_0_5 - 2 E_3_0_5 + y_F_2_3_0 <= 2
F_OnlyIf_LB_2_3_1_0: E_2_0_1 - 2 E_3_0_1 + y_F_2_3_1 <= 2
F_OnlyIf_LB_2_3_1_2: E_2_1_2 - 2 E_3_1_2 + y_F_2_3_1 <= 2
F_OnlyIf_LB_2_3_1_4: E_2_1_4 - 2 E_3_1_4 + y_F_2_3_1 <= 2
F_OnlyIf_LB_2_3_1_5: E_2_1_5 - 2 E_3_1_5 + y_F_2_3_1 <= 2
F_OnlyIf_LB_2_3_2_0: E_2_0_2 - 2 E_3_0_2 + y_F_2_3_2 <= 2
F_OnlyIf_LB_2_3_2_1: E_2_1_2 - 2 E_3_1_2 + y_F_2_3_2 <= 2
F_OnlyIf_LB_2_3_2_4: E_2_2_4 - 2 E_3_2_4 + y_F_2_3_2 <= 2
F_OnlyIf_LB_2_3_2_5: E_2_2_5 - 2 E_3_2_5 + y_F_2_3_2 <= 2
F_OnlyIf_LB_2_3_4_0: E_2_0_4 - 2 E_3_0_4 + y_F_2_3_4 <= 2
F_OnlyIf_LB_2_3_4_1: E_2_1_4 - 2 E_3_1_4 + y_F_2_3_4 <= 2
F_OnlyIf_LB_2_3_4_2: E_2_2_4 - 2 E_3_2_4 + y_F_2_3_4 <= 2
F_OnlyIf_LB_2_3_4_5: E_2_4_5 - 2 E_3_4_5 + y_F_2_3_4 <= 2
F_OnlyIf_LB_2_3_5_0: E_2_0_5 - 2 E_3_0_5 + y_F_2_3_5 <= 2
F_OnlyIf_LB_2_3_5_1: E_2_1_5 - 2 E_3_1_5 + y_F_2_3_5 <= 2
F_OnlyIf_LB_2_3_5_2: E_2_2_5 - 2 E_3_2_5 + y_F_2_3_5 <= 2
F_OnlyIf_LB_2_3_5_4: E_2_4_5 - 2 E_3_4_5 + y_F_2_3_5 <= 2
F_OnlyIf_LB_2_4_0_1: E_2_0_1 - 2 E_3_0_1 + y_F_2_4_0 <= 2
F_OnlyIf_LB_2_4_0_2: E_2_0_2 - 2 E_3_0_2 + y_F_2_4_0 <= 2
F_OnlyIf_LB_2_4_0_3: E_2_0_3 - 2 E_3_0_3 + y_F_2_4_0 <= 2
F_OnlyIf_LB_2_4_0_5: E_2_0_5 - 2 E_3_0_5 + y_F_2_4_0 <= 2
F_OnlyIf_LB_2_4_1_0: E_2_0_1 - 2 E_3_0_1 + y_F_2_4_1 <= 2
F_OnlyIf_LB_2_4_1_2: E_2_1_2 - 2 E_3_1_2 + y_F_2_4_1 <= 2
F_OnlyIf_LB_2_4_1_3: E_2_1_3 - 2 E_3_1_3 + y_F_2_4_1 <= 2
F_OnlyIf_LB_2_4_1_5: E_2_1_5 - 2 E_3_1_5 + y_F_2_4_1 <= 2
F_OnlyIf_LB_2_4_2_0: E_2_0_2 - 2 E_3_0_2 + y_F_2_4_2 <= 2
F_OnlyIf_LB_2_4_2_1: E_2_1_2 - 2 E_3_1_2 + y_F_2_4_2 <= 2
F_OnlyIf_LB_2_4_2_3: E_2_2_3 - 2 E_3_2_3 + y_F_2_4_2 <= 2
F_OnlyIf_LB_2_4_2_5: E_2_2_5 - 2 E_3_2_5 + y_F_2_4_2 <= 2
F_OnlyIf_LB_2_4_3_0: E_2_0_3 - 2 E_3_0_3 + y_F_2_4_3 <= 2
F_OnlyIf_LB_2_4_3_1: E_2_1_3 - 2 E_3_1_3 + y_F_2_4_3 <= 2
F_OnlyIf_LB_2_4_3_2: E_2_2_3 - 2 E_3_2_3 + y_F_2_4_3 <= 2
F_OnlyIf_LB_2_4_3_5: E_2_3_5 - 2 E_3_3_5 + y_F_2_4_3 <= 2
F_OnlyIf_LB_2_4_5_0: E_2_0_5 - 2 E_3_0_5 + y_F_2_4_5 <= 2
F_OnlyIf_LB_2_4_5_1: E_2_1_5 - 2 E_3_1_5 + y_F_2_4_5 <= 2
F_OnlyIf_LB_2_4_5_2: E_2_2_5 - 2 E_3_2_5 + y_F_2_4_5 <= 2
F_OnlyIf_LB_2_4_5_3: E_2_3_5 - 2 E_3_3_5 + y_F_2_4_5 <= 2
F_OnlyIf_LB_2_5_0_1: E_2_0_1 - 2 E_3_0_1 + y_F_2_5_0 <= 2
F_OnlyIf_LB_2_5_0_2: E_2_0_2 - 2 E_3_0_2 + y_F_2_5_0 <= 2
F_OnlyIf_LB_2_5_0_3: E_2_0_3 - 2 E_3_0_3 + y_F_2_5_0 <= 2
F_OnlyIf_LB_2_5_0_4: E_2_0_4 - 2 E_3_0_4 + y_F_2_5_0 <= 2
F_OnlyIf_LB_2_5_1_0: E_2_0_1 - 2 E_3_0_1 + y_F_2_5_1 <= 2
F_OnlyIf_LB_2_5_1_2: E_2_1_2 - 2 E_3_1_2 + y_F_2_5_1 <= 2
F_OnlyIf_LB_2_5_1_3: E_2_1_3 - 2 E_3_1_3 + y_F_2_5_1 <= 2
F_OnlyIf_LB_2_5_1_4: E_2_1_4 - 2 E_3_1_4 + y_F_2_5_1 <= 2
F_OnlyIf_LB_2_5_2_0: E_2_0_2 - 2 E_3_0_2 + y_F_2_5_2 <= 2
F_OnlyIf_LB_2_5_2_1: E_2_1_2 - 2 E_3_1_2 + y_F_2_5_2 <= 2
F_OnlyIf_LB_2_5_2_3: E_2_2_3 - 2 E_3_2_3 + y_F_2_5_2 <= 2
F_OnlyIf_LB_2_5_2_4: E_2_2_4 - 2 E_3_2_4 + y_F_2_5_2 <= 2
F_OnlyIf_LB_2_5_3_0: E_2_0_3 - 2 E_3_0_3 + y_F_2_5_3 <= 2
F_OnlyIf_LB_2_5_3_1: E_2_1_3 - 2 E_3_1_3 + y_F_2_5_3 <= 2
F_OnlyIf_LB_2_5_3_2: E_2_2_3 - 2 E_3_2_3 + y_F_2_5_3 <= 2
F_OnlyIf_LB_2_5_3_4: E_2_3_4 - 2 E_3_3_4 + y_F_2_5_3 <= 2
F_OnlyIf_LB_2_5_4_0: E_2_0_4 - 2 E_3_0_4 + y_F_2_5_4 <= 2
F_OnlyIf_LB_2_5_4_1: E_2_1_4 - 2 E_3_1_4 + y_F_2_5_4 <= 2
F_OnlyIf_LB_2_5_4_2: E_2_2_4 - 2 E_3_2_4 + y_F_2_5_4 <= 2
F_OnlyIf_LB_2_5_4_3: E_2_3_4 - 2 E_3_3_4 + y_F_2_5_4 <= 2
F_OnlyIf_LB_3_0_1_2: E_3_1_2 - 2 E_4_1_2 + y_F_3_0_1 <= 2
F_OnlyIf_LB_3_0_1_3: E_3_1_3 - 2 E_4_1_3 + y_F_3_0_1 <= 2
F_OnlyIf_LB_3_0_1_4: E_3_1_4 - 2 E_4_1_4 + y_F_3_0_1 <= 2
F_OnlyIf_LB_3_0_1_5: E_3_1_5 - 2 E_4_1_5 + y_F_3_0_1 <= 2
F_OnlyIf_LB_3_0_2_1: E_3_1_2 - 2 E_4_1_2 + y_F_3_0_2 <= 2
F_OnlyIf_LB_3_0_2_3: E_3_2_3 - 2 E_4_2_3 + y_F_3_0_2 <= 2
F_OnlyIf_LB_3_0_2_4: E_3_2_4 - 2 E_4_2_4 + y_F_3_0_2 <= 2
F_OnlyIf_LB_3_0_2_5: E_3_2_5 - 2 E_4_2_5 + y_F_3_0_2 <= 2
F_OnlyIf_LB_3_0_3_1: E_3_1_3 - 2 E_4_1_3 + y_F_3_0_3 <= 2
F_OnlyIf_LB_3_0_3_2: E_3_2_3 - 2 E_4_2_3 + y_F_3_0_3 <= 2
F_OnlyIf_LB_3_0_3_4: E_3_3_4 - 2 E_4_3_4 + y_F_3_0_3 <= 2
F_OnlyIf_LB_3_0_3_5: E_3_3_5 - 2 E_4_3_5 + y_F_3_0_3 <= 2
F_OnlyIf_LB_3_0_4_1: E_3_1_4 - 2 E_4_1_4 + y_F_3_0_4 <= 2
F_OnlyIf_LB_3_0_4_2: E_3_2_4 - 2 E_4_2_4 + y_F_3_0_4 <= 2
F_OnlyIf_LB_3_0_4_3: E_3_3_4 - 2 E_4_3_4 + y_F_3_0_4 <= 2
F_OnlyIf_LB_3_0_4_5: E_3_4_5 - 2 E_4_4_5 + y_F_3_0_4 <= 2
F_OnlyIf_LB_3_0_5_1: E_3_1_5 - 2 E_4_1_5 + y_F_3_0_5 <= 2
F_OnlyIf_LB_3_0_5_2: E_3_2_5 - 2 E_4_2_5 + y_F_3_0_5 <= 2
F_OnlyIf_LB_3_0_5_3: E_3_3_5 - 2 E_4_3_5 + y_F_3_0_5 <= 2
F_OnlyIf_LB_3_0_5_4: E_3_4_5 - 2 E_4_4_5 + y_F_3_0_5 <= 2
F_OnlyIf_LB_3_1_0_2: E_3_0_2 - 2 E_4_0_2 + y_F_3_1_0 <= 2
F_OnlyIf_LB_3_1_0_3: E_3_0_3 - 2 E_4_0_3 + y_F_3_1_0 <= 2
F_OnlyIf_LB_3_1_0_4: E_3_0_4 - 2 E_4_0_4 + y_F_3_1_0 <= 2
F_OnlyIf_LB_3_1_0_5: E_3_0_5 - 2 E_4_0_5 + y_F_3_1_0 <= 2
F_OnlyIf_LB_3_1_2_0: E_3_0_2 - 2 E_4_0_2 + y_F_3_1_2 <= 2
F_OnlyIf_LB_3_1_2_3: E_3_2_3 - 2 E_4_2_3 + y_F_3_1_2 <= 2
F_OnlyIf_LB_3_1_2_4: E_3_2_4 - 2 E_4_2_4 + y_F_3_1_2 <= 2
F_OnlyIf_LB_3_1_2_5: E_3_2_5 - 2 E_4_2_5 + y_F_3_1_2 <= 2
F_OnlyIf_LB_3_1_3_0: E_3_0_3 - 2 E_4_0_3 + y_F_3_1_3 <= 2
F_OnlyIf_LB_3_1_3_2: E_3_2_3 - 2 E_4_2_3 + y_F_3_1_3 <= 2
F_OnlyIf_LB_3_1_3_4: E_3_3_4 - 2 E_4_3_4 + y_F_3_1_3 <= 2
F_OnlyIf_LB_3_1_3_5: E_3_3_5 - 2 E_4_3_5 + y_F_3_1_3 <= 2
F_OnlyIf_LB_3_1_4_0: E_3_0_4 - 2 E_4_0_4 + y_F_3_1_4 <= 2
F_OnlyIf_LB_3_1_4_2: E_3_2_4 - 2 E_4_2_4 + y_F_3_1_4 <= 2
F_OnlyIf_LB_3_1_4_3: E_3_3_4 - 2 E_4_3_4 + y_F_3_1_4 <= 2
F_OnlyIf_LB_3_1_4_5: E_3_4_5 - 2 E_4_4_5 + y_F_3_1_4 <= 2
F_OnlyIf_LB_3_1_5_0: E_3_0_5 - 2 E_4_0_5 + y_F_3_1_5 <= 2
F_OnlyIf_LB_3_1_5_2: E_3_2_5 - 2 E_4_2_5 + y_F_3_1_5 <= 2
F_OnlyIf_LB_3_1_5_3: E_3_3_5 - 2 E_4_3_5 + y_F_3_1_5 <= 2
F_OnlyIf_LB_3_1_5_4: E_3_4_5 - 2 E_4_4_5 + y_F_3_1_5 <= 2
F_OnlyIf_LB_3_2_0_1: E_3_0_1 - 2 E_4_0_1 + y_F_3_2_0 <= 2
F_OnlyIf_LB_3_2_0_3: E_3_0_3 - 2 E_4_0_3 + y_F_3_2_0 <= 2
F_OnlyIf_LB_3_2_0_4: E_3_0_4 - 2 E_4_0_4 + y_F_3_2_0 <= 2
F_OnlyIf_LB_3_2_0_5: E_3_0_5 - 2 E_4_0_5 + y_F_3_2_0 <= 2
F_OnlyIf_LB_3_2_1_0: E_3_0_1 - 2 E_4_0_1 + y_F_3_2_1 <= 2
F_OnlyIf_LB_3_2_1_3: E_3_1_3 - 2 E_4_1_3 + y_F_3_2_1 <= 2
F_OnlyIf_LB_3_2_1_4: E_3_1_4 - 2 E_4_1_4 + y_F_3_2_1 <= 2
F_OnlyIf_LB_3_2_1_5: E_3_1_5 - 2 E_4_1_5 + y_F_3_2_1 <= 2
F_OnlyIf_LB_3_2_3_0: E_3_0_3 - 2 E_4_0_3 + y_F_3_2_3 <= 2
F_OnlyIf_LB_3_2_3_1: E_3_1_3 - 2 E_4_1_3 + y_F_3_2_3 <= 2
F_OnlyIf_LB_3_2_3_4: E_3_3_4 - 2 E_4_3_4 + y_F_3_2_3 <= 2
F_OnlyIf_LB_3_2_3_5: E_3_3_5 - 2 E_4_3_5 + y_F_3_2_3 <= 2
F_OnlyIf_LB_3_2_4_0: E_3_0_4 - 2 E_4_0_4 + y_F_3_2_4 <= 2
F_OnlyIf_LB_3_2_4_1: E_3_1_4 - 2 E_4_1_4 + y_F_3_2_4 <= 2
F_OnlyIf_LB_3_2_4_3: E_3_3_4 - 2 E_4_3_4 + y_F_3_2_4 <= 2
F_OnlyIf_LB_3_2_4_5: E_3_4_5 - 2 E_4_4_5 + y_F_3_2_4 <= 2
F_OnlyIf_LB_3_2_5_0: E_3_0_5 - 2 E_4_0_5 + y_F_3_2_5 <= 2
F_OnlyIf_LB_3_2_5_1: E_3_1_5 - 2 E_4_1_5 + y_F_3_2_5 <= 2
F_OnlyIf_LB_3_2_5_3: E_3_3_5 - 2 E_4_3_5 + y_F_3_2_5 <= 2
F_OnlyIf_LB_3_2_5_4: E_3_4_5 - 2 E_4_4_5 + y_F_3_2_5 <= 2
F_OnlyIf_LB_3_3_0_1: E_3_0_1 - 2 E_4_0_1 + y_F_3_3_0 <= 2
F_OnlyIf_LB_3_3_0_2: E_3_0_2 - 2 E_4_0_2 + y_F_3_3_0 <= 2
F_OnlyIf_LB_3_3_0_4: E_3_0_4 - 2 E_4_0_4 + y_F_3_3_0 <= 2
F_OnlyIf_LB_3_3_0_5: E_3_0_5 - 2 E_4_0_5 + y_F_3_3_0 <= 2
F_OnlyIf_LB_3_3_1_0: E_3_0_1 - 2 E_4_0_1 + y_F_3_3_1 <= 2
F_OnlyIf_LB_3_3_1_2: E_3_1_2 - 2 E_4_1_2 + y_F_3_3_1 <= 2
F_OnlyIf_LB_3_3_1_4: E_3_1_4 - 2 E_4_1_4 + y_F_3_3_1 <= 2
F_OnlyIf_LB_3_3_1_5: E_3_1_5 - 2 E_4_1_5 + y_F_3_3_1 <= 2
F_OnlyIf_LB_3_3_2_0: E_3_0_2 - 2 E_4_0_2 + y_F_3_3_2 <= 2
F_OnlyIf_LB_3_3_2_1: E_3_1_2 - 2 E_4_1_2 + y_F_3_3_2 <= 2
F_OnlyIf_LB_3_3_2_4: E_3_2_4 - 2 E_4_2_4 + y_F_3_3_2 <= 2
F_OnlyIf_LB_3_3_2_5: E_3_2_5 - 2 E_4_2_5 + y_F_3_3_2 <= 2
F_OnlyIf_LB_3_3_4_0: E_3_0_4 - 2 E_4_0_4 + y_F_3_3_4 <= 2
F_OnlyIf_LB_3_3_4_1: E_3_1_4 - 2 E_4_1_4 + y_F_3_3_4 <= 2
F_OnlyIf_LB_3_3_4_2: E_3_2_4 - 2 E_4_2_4 + y_F_3_3_4 <= 2
F_OnlyIf_LB_3_3_4_5: E_3_4_5 - 2 E_4_4_5 + y_F_3_3_4 <= 2
F_OnlyIf_LB_3_3_5_0: E_3_0_5 - 2 E_4_0_5 + y_F_3_3_5 <= 2
F_OnlyIf_LB_3_3_5_1: E_3_1_5 - 2 E_4_1_5 + y_F_3_3_5 <= 2
F_OnlyIf_LB_3_3_5_2: E_3_2_5 - 2 E_4_2_5 + y_F_3_3_5 <= 2
F_OnlyIf_LB_3_3_5_4: E_3_4_5 - 2 E_4_4_5 + y_F_3_3_5 <= 2
F_OnlyIf_LB_3_4_0_1: E_3_0_1 - 2 E_4_0_1 + y_F_3_4_0 <= 2
F_OnlyIf_LB_3_4_0_2: E_3_0_2 - 2 E_4_0_2 + y_F_3_4_0 <= 2
F_OnlyIf_LB_3_4_0_3: E_3_0_3 - 2 E_4_0_3 + y_F_3_4_0 <= 2
F_OnlyIf_LB_3_4_0_5: E_3_0_5 - 2 E_4_0_5 + y_F_3_4_0 <= 2
F_OnlyIf_LB_3_4_1_0: E_3_0_1 - 2 E_4_0_1 + y_F_3_4_1 <= 2
F_OnlyIf_LB_3_4_1_2: E_3_1_2 - 2 E_4_1_2 + y_F_3_4_1 <= 2
F_OnlyIf_LB_3_4_1_3: E_3_1_3 - 2 E_4_1_3 + y_F_3_4_1 <= 2
F_OnlyIf_LB_3_4_1_5: E_3_1_5 - 2 E_4_1_5 + y_F_3_4_1 <= 2
F_OnlyIf_LB_3_4_2_0: E_3_0_2 - 2 E_4_0_2 + y_F_3_4_2 <= 2
F_OnlyIf_LB_3_4_2_1: E_3_1_2 - 2 E_4_1_2 + y_F_3_4_2 <= 2
F_OnlyIf_LB_3_4_2_3: E_3_2_3 - 2 E_4_2_3 + y_F_3_4_2 <= 2
F_OnlyIf_LB_3_4_2_5: E_3_2_5 - 2 E_4_2_5 + y_F_3_4_2 <= 2
F_OnlyIf_LB_3_4_3_0: E_3_0_3 - 2 E_4_0_3 + y_F_3_4_3 <= 2
F_OnlyIf_LB_3_4_3_1: E_3_1_3 - 2 E_4_1_3 + y_F_3_4_3 <= 2
F_OnlyIf_LB_3_4_3_2: E_3_2_3 - 2 E_4_2_3 + y_F_3_4_3 <= 2
F_OnlyIf_LB_3_4_3_5: E_3_3_5 - 2 E_4_3_5 + y_F_3_4_3 <= 2
F_OnlyIf_LB_3_4_5_0: E_3_0_5 - 2 E_4_0_5 + y_F_3_4_5 <= 2
F_OnlyIf_LB_3_4_5_1: E_3_1_5 - 2 E_4_1_5 + y_F_3_4_5 <= 2
F_OnlyIf_LB_3_4_5_2: E_3_2_5 - 2 E_4_2_5 + y_F_3_4_5 <= 2
F_OnlyIf_LB_3_4_5_3: E_3_3_5 - 2 E_4_3_5 + y_F_3_4_5 <= 2
F_OnlyIf_LB_3_5_0_1: E_3_0_1 - 2 E_4_0_1 + y_F_3_5_0 <= 2
F_OnlyIf_LB_3_5_0_2: E_3_0_2 - 2 E_4_0_2 + y_F_3_5_0 <= 2
F_OnlyIf_LB_3_5_0_3: E_3_0_3 - 2 E_4_0_3 + y_F_3_5_0 <= 2
F_OnlyIf_LB_3_5_0_4: E_3_0_4 - 2 E_4_0_4 + y_F_3_5_0 <= 2
F_OnlyIf_LB_3_5_1_0: E_3_0_1 - 2 E_4_0_1 + y_F_3_5_1 <= 2
F_OnlyIf_LB_3_5_1_2: E_3_1_2 - 2 E_4_1_2 + y_F_3_5_1 <= 2
F_OnlyIf_LB_3_5_1_3: E_3_1_3 - 2 E_4_1_3 + y_F_3_5_1 <= 2
F_OnlyIf_LB_3_5_1_4: E_3_1_4 - 2 E_4_1_4 + y_F_3_5_1 <= 2
F_OnlyIf_LB_3_5_2_0: E_3_0_2 - 2 E_4_0_2 + y_F_3_5_2 <= 2
F_OnlyIf_LB_3_5_2_1: E_3_1_2 - 2 E_4_1_2 + y_F_3_5_2 <= 2
F_OnlyIf_LB_3_5_2_3: E_3_2_3 - 2 E_4_2_3 + y_F_3_5_2 <= 2
F_OnlyIf_LB_3_5_2_4: E_3_2_4 - 2 E_4_2_4 + y_F_3_5_2 <= 2
F_OnlyIf_LB_3_5_3_0: E_3_0_3 - 2 E_4_0_3 + y_F_3_5_3 <= 2
F_OnlyIf_LB_3_5_3_1: E_3_1_3 - 2 E_4_1_3 + y_F_3_5_3 <= 2
F_OnlyIf_LB_3_5_3_2: E_3_2_3 - 2 E_4_2_3 + y_F_3_5_3 <= 2
F_OnlyIf_LB_3_5_3_4: E_3_3_4 - 2 E_4_3_4 + y_F_3_5_3 <= 2
F_OnlyIf_LB_3_5_4_0: E_3_0_4 - 2 E_4_0_4 + y_F_3_5_4 <= 2
F_OnlyIf_LB_3_5_4_1: E_3_1_4 - 2 E_4_1_4 + y_F_3_5_4 <= 2
F_OnlyIf_LB_3_5_4_2: E_3_2_4 - 2 E_4_2_4 + y_F_3_5_4 <= 2
F_OnlyIf_LB_3_5_4_3: E_3_3_4 - 2 E_4_3_4 + y_F_3_5_4 <= 2
F_OnlyIf_UB_0_0_1_2: - 2 E_0_0_2 - E_0_1_2 + 2 E_1_0_2 + y_F_0_0_1 <= 2
F_OnlyIf_UB_0_0_1_3: - 2 E_0_0_3 - E_0_1_3 + 2 E_1_0_3 + y_F_0_0_1 <= 2
F_OnlyIf_UB_0_0_1_4: - 2 E_0_0_4 - E_0_1_4 + 2 E_1_0_4 + y_F_0_0_1 <= 2
F_OnlyIf_UB_0_0_1_5: - 2 E_0_0_5 - E_0_1_5 + 2 E_1_0_5 + y_F_0_0_1 <= 2
F_OnlyIf_UB_0_0_2_1: - 2 E_0_0_1 - E_0_1_2 + 2 E_1_0_1 + y_F_0_0_2 <= 2
F_OnlyIf_UB_0_0_2_3: - 2 E_0_0_3 - E_0_2_3 + 2 E_1_0_3 + y_F_0_0_2 <= 2
F_OnlyIf_UB_0_0_2_4: - 2 E_0_0_4 - E_0_2_4 + 2 E_1_0_4 + y_F_0_0_2 <= 2
F_OnlyIf_UB_0_0_2_5: - 2 E_0_0_5 - E_0_2_5 + 2 E_1_0_5 + y_F_0_0_2 <= 2
F_OnlyIf_UB_0_0_3_1: - 2 E_0_0_1 - E_0_1_3 + 2 E_1_0_1 + y_F_0_0_3 <= 2
F_OnlyIf_UB_0_0_3_2: - 2 E_0_0_2 - E_0_2_3 + 2 E_1_0_2 + y_F_0_0_3 <= 2
F_OnlyIf_UB_0_0_3_4: - 2 E_0_0_4 - E_0_3_4 + 2 E_1_0_4 + y_F_0_0_3 <= 2
F_OnlyIf_UB_0_0_3_5: - 2 E_0_0_5 - E_0_3_5 + 2 E_1_0_5 + y_F_0_0_3 <= 2
F_OnlyIf_UB_0_0_4_1: - 2 E_0_0_1 - E_0_1_4 + 2 E_1_0_1 + y_F_0_0_4 <= 2
F_OnlyIf_UB_0_0_4_2: - 2 E_0_0_2 - E_0_2_4 + 2 E_1_0_2 + y_F_0_0_4 <= 2
F_OnlyIf_UB_0_0_4_3: - 2 E_0_0_3 - E_0_3_4 + 2 E_1_0_3 + y_F_0_0_4 <= 2
F_OnlyIf_UB_0_0_4_5: - 2 E_0_0_5 - E_0_4_5 + 2 E_1_0_5 + y_F_0_0_4 <= 2
F_OnlyIf_UB_0_0_5_1: - 2 E_0_0_1 - E_0_1_5 + 2 E_1_0_1 + y_F_0_0_5 <= 2
F_OnlyIf_UB_0_0_5_2: - 2 E_0_0_2 - E_0_2_5 + 2 E_1_0_2 + y_F_0_0_5 <= 2
F_OnlyIf_UB_0_0_5_3: - 2 E_0_0_3 - E_0_3_5 + 2 E_1_0_3 + y_F_0_0_5 <= 2
F_OnlyIf_UB_0_0_5_4: - 2 E_0_0_4 - E_0_4_5 + 2 E_1_0_4 + y_F_0_0_5 <= 2
F_OnlyIf_UB_0_1_0_2: - E_0_0_2 - 2 E_0_1_2 + 2 E_1_1_2 + y_F_0_1_0 <= 2
F_OnlyIf_UB_0_1_0_3: - E_0_0_3 - 2 E_0_1_3 + 2 E_1_1_3 + y_F_0_1_0 <= 2
F_OnlyIf_UB_0_1_0_4: - E_0_0_4 - 2 E_0_1_4 + 2 E_1_1_4 + y_F_0_1_0 <= 2
F_OnlyIf_UB_0_1_0_5: - E_0_0_5 - 2 E_0_1_5 + 2 E_1_1_5 + y_F_0_1_0 <= 2
F_OnlyIf_UB_0_1_2_0: - 2 E_0_0_1 - E_0_0_2 + 2 E_1_0_1 + y_F_0_1_2 <= 2
F_OnlyIf_UB_0_1_2_3: - 2 E_0_1_3 - E_0_2_3 + 2 E_1_1_3 + y_F_0_1_2 <= 2
F_OnlyIf_UB_0_1_2_4: - 2 E_0_1_4 - E_0_2_4 + 2 E_1_1_4 + y_F_0_1_2 <= 2
F_OnlyIf_UB_0_1_2_5: - 2 E_0_1_5 - E_0_2_5 + 2 E_1_1_5 + y_F_0_1_2 <= 2
F_OnlyIf_UB_0_1_3_0: - 2 E_0_0_1 - E_0_0_3 + 2 E_1_0_1 + y_F_0_1_3 <= 2
F_OnlyIf_UB_0_1_3_2: - 2 E_0_1_2 - E_0_2_3 + 2 E_1_1_2 + y_F_0_1_3 <= 2
F_OnlyIf_UB_0_1_3_4: - 2 E_0_1_4 - E_0_3_4 + 2 E_1_1_4 + y_F_0_1_3 <= 2
F_OnlyIf_UB_0_1_3_5: - 2 E_0_1_5 - E_0_3_5 + 2 E_1_1_5 + y_F_0_1_3 <= 2
F_OnlyIf_UB_0_1_4_0: - 2 E_0_0_1 - E_0_0_4 + 2 E_1_0_1 + y_F_0_1_4 <= 2
F_OnlyIf_UB_0_1_4_2: - 2 E_0_1_2 - E_0_2_4 + 2 E_1_1_2 + y_F_0_1_4 <= 2
F_OnlyIf_UB_0_1_4_3: - 2 E_0_1_3 - E_0_3_4 + 2 E_1_1_3 + y_F_0_1_4 <= 2
F_OnlyIf_UB_0_1_4_5: - 2 E_0_1_5 - E_0_4_5 + 2 E_1_1_5 + y_F_0_1_4 <= 2
F_OnlyIf_UB_0_1_5_0: - 2 E_0_0_1 - E_0_0_5 + 2 E_1_0_1 + y_F_0_1_5 <= 2
F_OnlyIf_UB_0_1_5_2: - 2 E_0_1_2 - E_0_2_5 + 2 E_1_1_2 + y_F_0_1_5 <= 2
F_OnlyIf_UB_0_1_5_3: - 2 E_0_1_3 - E_0_3_5 + 2 E_1_1_3 + y_F_0_1_5 <= 2
F_OnlyIf_UB_0_1_5_4: - 2 E_0_1_4 - E_0_4_5 + 2 E_1_1_4 + y_F_0_1_5 <= 2
F_OnlyIf_UB_0_2_0_1: - E_0_0_1 - 2 E_0_1_2 + 2 E_1_1_2 + y_F_0_2_0 <= 2
F_OnlyIf_UB_0_2_0_3: - E_0_0_3 - 2 E_0_2_3 + 2 E_1_2_3 + y_F_0_2_0 <= 2
F_OnlyIf_UB_0_2_0_4: - E_0_0_4 - 2 E_0_2_4 + 2 E_1_2_4 + y_F_0_2_0 <= 2
F_OnlyIf_UB_0_2_0_5: - E_0_0_5 - 2 E_0_2_5 + 2 E_1_2_5 + y_F_0_2_0 <= 2
F_OnlyIf_UB_0_2_1_0: - E_0_0_1 - 2 E_0_0_2 + 2 E_1_0_2 + y_F_0_2_1 <= 2
F_OnlyIf_UB_0_2_1_3: - E_0_1_3 - 2 E_0_2_3 + 2 E_1_2_3 + y_F_0_2_1 <= 2
F_OnlyIf_UB_0_2_1_4: - E_0_1_4 - 2 E_0_2_4 + 2 E_1_2_4 + y_F_0_2_1 <= 2
F_OnlyIf_UB_0_2_1_5: - E_0_1_5 - 2 E_0_2_5 + 2 E_1_2_5 + y_F_0_2_1 <= 2
F_OnlyIf_UB_0_2_3_0: - 2 E_0_0_2 - E_0_0_3 + 2 E_1_0_2 + y_F_0_2_3 <= 2
F_OnlyIf_UB_0_2_3_1: - 2 E_0_1_2 - E_0_1_3 + 2 E_1_1_2 + y_F_0_2_3 <= 2
F_OnlyIf_UB_0_2_3_4: - 2 E_0_2_4 - E_0_3_4 + 2 E_1_2_4 + y_F_0_2_3 <= 2
F_OnlyIf_UB_0_2_3_5: - 2 E_0_2_5 - E_0_3_5 + 2 E_1_2_5 + y_F_0_2_3 <= 2
F_OnlyIf_UB_0_2_4_0: - 2 E_0_0_2 - E_0_0_4 + 2 E_1_0_2 + y_F_0_2_4 <= 2
F_OnlyIf_UB_0_2_4_1: - 2 E_0_1_2 - E_0_1_4 + 2 E_1_1_2 + y_F_0_2_4 <= 2
F_OnlyIf_UB_0_2_4_3: - 2 E_0_2_3 - E_0_3_4 + 2 E_1_2_3 + y_F_0_2_4 <= 2
F_OnlyIf_UB_0_2_4_5: - 2 E_0_2_5 - E_0_4_5 + 2 E_1_2_5 + y_F_0_2_4 <= 2
F_OnlyIf_UB_0_2_5_0: - 2 E_0_0_2 - E_0_0_5 + 2 E_1_0_2 + y_F_0_2_5 <= 2
F_OnlyIf_UB_0_2_5_1: - 2 E_0_1_2 - E_0_1_5 + 2 E_1_1_2 + y_F_0_2_5 <= 2
F_OnlyIf_UB_0_2_5_3: - 2 E_0_2_3 - E_0_3_5 + 2 E_1_2_3 + y_F_0_2_5 <= 2
F_OnlyIf_UB_0_2_5_4: - 2 E_0_2_4 - E_0_4_5 + 2 E_1_2_4 + y_F_0_2_5 <= 2
F_OnlyIf_UB_0_3_0_1: - E_0_0_1 - 2 E_0_1_3 + 2 E_1_1_3 + y_F_0_3_0 <= 2
F_OnlyIf_UB_0_3_0_2: - E_0_0_2 - 2 E_0_2_3 + 2 E_1_2_3 + y_F_0_3_0 <= 2
F_OnlyIf_UB_0_3_0_4: - E_0_0_4 - 2 E_0_3_4 + 2 E_1_3_4 + y_F_0_3_0 <= 2
F_OnlyIf_UB_0_3_0_5: - E_0_0_5 - 2 E_0_3_5 + 2 E_1_3_5 + y_F_0_3_0 <= 2
F_OnlyIf_UB_0_3_1_0: - E_0_0_1 - 2 E_0_0_3 + 2 E_1_0_3 + y_F_0_3_1 <= 2
F_OnlyIf_UB_0_3_1_2: - E_0_1_2 - 2 E_0_2_3 + 2 E_1_2_3 + y_F_0_3_1 <= 2
F_OnlyIf_UB_0_3_1_4: - E_0_1_4 - 2 E_0_3_4 + 2 E_1_3_4 + y_F_0_3_1 <= 2
F_OnlyIf_UB_0_3_1_5: - E_0_1_5 - 2 E_0_3_5 + 2 E_1_3_5 + y_F_0_3_1 <= 2
F_OnlyIf_UB_0_3_2_0: - E_0_0_2 - 2 E_0_0_3 + 2 E_1_0_3 + y_F_0_3_2 <= 2
F_OnlyIf_UB_0_3_2_1: - E_0_1_2 - 2 E_0_1_3 + 2 E_1_1_3 + y_F_0_3_2 <= 2
F_OnlyIf_UB_0_3_2_4: - E_0_2_4 - 2 E_0_3_4 + 2 E_1_3_4 + y_F_0_3_2 <= 2
F_OnlyIf_UB_0_3_2_5: - E_0_2_5 - 2 E_0_3_5 + 2 E_1_3_5 + y_F_0_3_2 <= 2
F_OnlyIf_UB_0_3_4_0: - 2 E_0_0_3 - E_0_0_4 + 2 E_1_0_3 + y_F_0_3_4 <= 2
F_OnlyIf_UB_0_3_4_1: - 2 E_0_1_3 - E_0_1_4 + 2 E_1_1_3 + y_F_0_3_4 <= 2
F_OnlyIf_UB_0_3_4_2: - 2 E_0_2_3 - E_0_2_4 + 2 E_1_2_3 + y_F_0_3_4 <= 2
F_OnlyIf_UB_0_3_4_5: - 2 E_0_3_5 - E_0_4_5 + 2 E_1_3_5 + y_F_0_3_4 <= 2
F_OnlyIf_UB_0_3_5_0: - 2 E_0_0_3 - E_0_0_5 + 2 E_1_0_3 + y_F_0_3_5 <= 2
F_OnlyIf_UB_0_3_5_1: - 2 E_0_1_3 - E_0_1_5 + 2 E_1_1_3 + y_F_0_3_5 <= 2
F_OnlyIf_UB_0_3_5_2: - 2 E_0_2_3 - E_0_2_5 + 2 E_1_2_3 + y_F_0_3_5 <= 2
F_OnlyIf_UB_0_3_5_4: - 2 E_0_3_4 - E_0_4_5 + 2 E_1_3_4 + y_F_0_3_5 <= 2
F_OnlyIf_UB_0_4_0_1: - E_0_0_1 - 2 E_0_1_4 + 2 E_1_1_4 + y_F_0_4_0 <= 2
F_OnlyIf_UB_0_4_0_2: - E_0_0_2 - 2 E_0_2_4 + 2 E_1_2_4 + y_F_0_4_0 <= 2
F_OnlyIf_UB_0_4_0_3: - E_0_0_3 - 2 E_0_3_4 + 2 E_1_3_4 + y_F_0_4_0 <= 2
F_OnlyIf_UB_0_4_0_5: - E_0_0_5 - 2 E_0_4_5 + 2 E_1_4_5 + y_F_0_4_0 <= 2
F_OnlyIf_UB_0_4_1_0: - E_0_0_1 - 2 E_0_0_4 + 2 E_1_0_4 + y_F_0_4_1 <= 2
F_OnlyIf_UB_0_4_1_2: - E_0_1_2 - 2 E_0_2_4 + 2 E_1_2_4 + y_F_0_4_1 <= 2
F_OnlyIf_UB_0_4_1_3: - E_0_1_3 - 2 E_0_3_4 + 2 E_1_3_4 + y_F_0_4_1 <= 2
F_OnlyIf_UB_0_4_1_5: - E_0_1_5 - 2 E_0_4_5 + 2 E_1_4_5 + y_F_0_4_1 <= 2
F_OnlyIf_UB_0_4_2_0: - E_0_0_2 - 2 E_0_0_4 + 2 E_1_0_4 + y_F_0_4_2 <= 2
F_OnlyIf_UB_0_4_2_1: - E_0_1_2 - 2 E_0_1_4 + 2 E_1_1_4 + y_F_0_4_2 <= 2
F_OnlyIf_UB_0_4_2_3: - E_0_2_3 - 2 E_0_3_4 + 2 E_1_3_4 + y_F_0_4_2 <= 2
F_OnlyIf_UB_0_4_2_5: - E_0_2_5 - 2 E_0_4_5 + 2 E_1_4_5 + y_F_0_4_2 <= 2
F_OnlyIf_UB_0_4_3_0: - E_0_0_3 - 2 E_0_0_4 + 2 E_1_0_4 + y_F_0_4_3 <= 2
F_OnlyIf_UB_0_4_3_1: - E_0_1_3 - 2 E_0_1_4 + 2 E_1_1_4 + y_F_0_4_3 <= 2
F_OnlyIf_UB_0_4_3_2: - E_0_2_3 - 2 E_0_2_4 + 2 E_1_2_4 + y_F_0_4_3 <= 2
F_OnlyIf_UB_0_4_3_5: - E_0_3_5 - 2 E_0_4_5 + 2 E_1_4_5 + y_F_0_4_3 <= 2
F_OnlyIf_UB_0_4_5_0: - 2 E_0_0_4 - E_0_0_5 + 2 E_1_0_4 + y_F_0_4_5 <= 2
F_OnlyIf_UB_0_4_5_1: - 2 E_0_1_4 - E_0_1_5 + 2 E_1_1_4 + y_F_0_4_5 <= 2
F_OnlyIf_UB_0_4_5_2: - 2 E_0_2_4 - E_0_2_5 + 2 E_1_2_4 + y_F_0_4_5 <= 2
F_OnlyIf_UB_0_4_5_3: - 2 E_0_3_4 - E_0_3_5 + 2 E_1_3_4 + y_F_0_4_5 <= 2
F_OnlyIf_UB_0_5_0_1: - E_0_0_1 - 2 E_0_1_5 + 2 E_1_1_5 + y_F_0_5_0 <= 2
F_OnlyIf_UB_0_5_0_2: - E_0_0_2 - 2 E_0_2_5 + 2 E_1_2_5 + y_F_0_5_0 <= 2
F_OnlyIf_UB_0_5_0_3: - E_0_0_3 - 2 E_0_3_5 + 2 E_1_3_5 + y_F_0_5_0 <= 2
F_OnlyIf_UB_0_5_0_4: - E_0_0_4 - 2 E_0_4_5 + 2 E_1_4_5 + y_F_0_5_0 <= 2
F_OnlyIf_UB_0_5_1_0: - E_0_0_1 - 2 E_0_0_5 + 2 E_1_0_5 + y_F_0_5_1 <= 2
F_OnlyIf_UB_0_5_1_2: - E_0_1_2 - 2 E_0_2_5 + 2 E_1_2_5 + y_F_0_5_1 <= 2
F_OnlyIf_UB_0_5_1_3: - E_0_1_3 - 2 E_0_3_5 + 2 E_1_3_5 + y_F_0_5_1 <= 2
F_OnlyIf_UB_0_5_1_4: - E_0_1_4 - 2 E_0_4_5 + 2 E_1_4_5 + y_F_0_5_1 <= 2
F_OnlyIf_UB_0_5_2_0: - E_0_0_2 - 2 E_0_0_5 + 2 E_1_0_5 + y_F_0_5_2 <= 2
F_OnlyIf_UB_0_5_2_1: - E_0_1_2 - 2 E_0_1_5 + 2 E_1_1_5 + y_F_0_5_2 <= 2
F_OnlyIf_UB_0_5_2_3: - E_0_2_3 - 2 E_0_3_5 + 2 E_1_3_5 + y_F_0_5_2 <= 2
F_OnlyIf_UB_0_5_2_4: - E_0_2_4 - 2 E_0_4_5 + 2 E_1_4_5 + y_F_0_5_2 <= 2
F_OnlyIf_UB_0_5_3_0: - E_0_0_3 - 2 E_0_0_5 + 2 E_1_0_5 + y_F_0_5_3 <= 2
F_OnlyIf_UB_0_5_3_1: - E_0_1_3 - 2 E_0_1_5 + 2 E_1_1_5 + y_F_0_5_3 <= 2
F_OnlyIf_UB_0_5_3_2: - E_0_2_3 - 2 E_0_2_5 + 2 E_1_2_5 + y_F_0_5_3 <= 2
F_OnlyIf_UB_0_5_3_4: - E_0_3_4 - 2 E_0_4_5 + 2 E_1_4_5 + y_F_0_5_3 <= 2
F_OnlyIf_UB_0_5_4_0: - E_0_0_4 - 2 E_0_0_5 + 2 E_1_0_5 + y_F_0_5_4 <= 2
F_OnlyIf_UB_0_5_4_1: - E_0_1_4 - 2 E_0_1_5 + 2 E_1_1_5 + y_F_0_5_4 <= 2
F_OnlyIf_UB_0_5_4_2: - E_0_2_4 - 2 E_0_2_5 + 2 E_1_2_5 + y_F_0_5_4 <= 2
F_OnlyIf_UB_0_5_4_3: - E_0_3_4 - 2 E_0_3_5 + 2 E_1_3_5 + y_F_0_5_4 <= 2
F_OnlyIf_UB_1_0_1_2: - 2 E_1_0_2 - E_1_1_2 + 2 E_2_0_2 + y_F_1_0_1 <= 2
F_OnlyIf_UB_1_0_1_3: - 2 E_1_0_3 - E_1_1_3 + 2 E_2_0_3 + y_F_1_0_1 <= 2
F_OnlyIf_UB_1_0_1_4: - 2 E_1_0_4 - E_1_1_4 + 2 E_2_0_4 + y_F_1_0_1 <= 2
F_OnlyIf_UB_1_0_1_5: - 2 E_1_0_5 - E_1_1_5 + 2 E_2_0_5 + y_F_1_0_1 <= 2
F_OnlyIf_UB_1_0_2_1: - 2 E_1_0_1 - E_1_1_2 + 2 E_2_0_1 + y_F_1_0_2 <= 2
F_OnlyIf_UB_1_0_2_3: - 2 E_1_0_3 - E_1_2_3 + 2 E_2_0_3 + y_F_1_0_2 <= 2
F_OnlyIf_UB_1_0_2_4: - 2 E_1_0_4 - E_1_2_4 + 2 E_2_0_4 + y_F_1_0_2 <= 2
F_OnlyIf_UB_1_0_2_5: - 2 E_1_0_5 - E_1_2_5 + 2 E_2_0_5 + y_F_1_0_2 <= 2
F_OnlyIf_UB_1_0_3_1: - 2 E_1_0_1 - E_1_1_3 + 2 E_2_0_1 + y_F_1_0_3 <= 2
F_OnlyIf_UB_1_0_3_2: - 2 E_1_0_2 - E_1_2_3 + 2 E_2_0_2 + y_F_1_0_3 <= 2
F_OnlyIf_UB_1_0_3_4: - 2 E_1_0_4 - E_1_3_4 + 2 E_2_0_4 + y_F_1_0_3 <= 2
F_OnlyIf_UB_1_0_3_5: - 2 E_1_0_5 - E_1_3_5 + 2 E_2_0_5 + y_F_1_0_3 <= 2
F_OnlyIf_UB_1_0_4_1: - 2 E_1_0_1 - E_1_1_4 + 2 E_2_0_1 + y_F_1_0_4 <= 2
F_OnlyIf_UB_1_0_4_2: - 2 E_1_0_2 - E_1_2_4 + 2 E_2_0_2 + y_F_1_0_4 <= 2
F_OnlyIf_UB_1_0_4_3: - 2 E_1_0_3 - E_1_3_4 + 2 E_2_0_3 + y_F_1_0_4 <= 2
F_OnlyIf_UB_1_0_4_5: - 2 E_1_0_5 - E_1_4_5 + 2 E_2_0_5 + y_F_1_0_4 <= 2
F_OnlyIf_UB_1_0_5_1: - 2 E_1_0_1 - E_1_1_5 + 2 E_2_0_1 + y_F_1_0_5 <= 2
F_OnlyIf_UB_1_0_5_2: - 2 E_1_0_2 - E_1_2_5 + 2 E_2_0_2 + y_F_1_0_5 <= 2
F_OnlyIf_UB_1_0_5_3: - 2 E_1_0_3 - E_1_3_5 + 2 E_2_0_3 + y_F_1_0_5 <= 2
F_OnlyIf_UB_1_0_5_4: - 2 E_1_0_4 - E_1_4_5 + 2 E_2_0_4 + y_F_1_0_5 <= 2
F_OnlyIf_UB_1_1_0_2: - E_1_0_2 - 2 E_1_1_2 + 2 E_2_1_2 + y_F_1_1_0 <= 2
F_OnlyIf_UB_1_1_0_3: - E_1_0_3 - 2 E_1_1_3 + 2 E_2_1_3 + y_F_1_1_0 <= 2
F_OnlyIf_UB_1_1_0_4: - E_1_0_4 - 2 E_1_1_4 + 2 E_2_1_4 + y_F_1_1_0 <= 2
F_OnlyIf_UB_1_1_0_5: - E_1_0_5 - 2 E_1_1_5 + 2 E_2_1_5 + y_F_1_1_0 <= 2
F_OnlyIf_UB_1_1_2_0: - 2 E_1_0_1 - E_1_0_2 + 2 E_2_0_1 + y_F_1_1_2 <= 2
F_OnlyIf_UB_1_1_2_3: - 2 E_1_1_3 - E_1_2_3 + 2 E_2_1_3 + y_F_1_1_2 <= 2
F_OnlyIf_UB_1_1_2_4: - 2 E_1_1_4 - E_1_2_4 + 2 E_2_1_4 + y_F_1_1_2 <= 2
F_OnlyIf_UB_1_1_2_5: - 2 E_1_1_5 - E_1_2_5 + 2 E_2_1_5 + y_F_1_1_2 <= 2
F_OnlyIf_UB_1_1_3_0: - 2 E_1_0_1 - E_1_0_3 + 2 E_2_0_1 + y_F_1_1_3 <= 2
F_OnlyIf_UB_1_1_3_2: - 2 E_1_1_2 - E_1_2_3 + 2 E_2_1_2 + y_F_1_1_3 <= 2
F_OnlyIf_UB_1_1_3_4: - 2 E_1_1_4 - E_1_3_4 + 2 E_2_1_4 + y_F_1_1_3 <= 2
F_OnlyIf_UB_1_1_3_5: - 2 E_1_1_5 - E_1_3_5 + 2 E_2_1_5 + y_F_1_1_3 <= 2
F_OnlyIf_UB_1_1_4_0: - 2 E_1_0_1 - E_1_0_4 + 2 E_2_0_1 + y_F_1_1_4 <= 2
F_OnlyIf_UB_1_1_4_2: - 2 E_1_1_2 - E_1_2_4 + 2 E_2_1_2 + y_F_1_1_4 <= 2
F_OnlyIf_UB_1_1_4_3: - 2 E_1_1_3 - E_1_3_4 + 2 E_2_1_3 + y_F_1_1_4 <= 2
F_OnlyIf_UB_1_1_4_5: - 2 E_1_1_5 - E_1_4_5 + 2 E_2_1_5 + y_F_1_1_4 <= 2
F_OnlyIf_UB_1_1_5_0: - 2 E_1_0_1 - E_1_0_5 + 2 E_2_0_1 + y_F_1_1_5 <= 2
F_OnlyIf_UB_1_1_5_2: - 2 E_1_1_2 - E_1_2_5 + 2 E_2_1_2 + y_F_1_1_5 <= 2
F_OnlyIf_UB_1_1_5_3: - 2 E_1_1_3 - E_1_3_5 + 2 E_2_1_3 + y_F_1_1_5 <= 2
F_OnlyIf_UB_1_1_5_4: - 2 E_1_1_4 - E_1_4_5 + 2 E_2_1_4 + y_F_1_1_5 <= 2
F_OnlyIf_UB_1_2_0_1: - E_1_0_1 - 2 E_1_1_2 + 2 E_2_1_2 + y_F_1_2_0 <= 2
F_OnlyIf_UB_1_2_0_3: - E_1_0_3 - 2 E_1_2_3 + 2 E_2_2_3 + y_F_1_2_0 <= 2
F_OnlyIf_UB_1_2_0_4: - E_1_0_4 - 2 E_1_2_4 + 2 E_2_2_4 + y_F_1_2_0 <= 2
F_OnlyIf_UB_1_2_0_5: - E_1_0_5 - 2 E_1_2_5 + 2 E_2_2_5 + y_F_1_2_0 <= 2
F_OnlyIf_UB_1_2_1_0: - E_1_0_1 - 2 E_1_0_2 + 2 E_2_0_2 + y_F_1_2_1 <= 2
F_OnlyIf_UB_1_2_1_3: - E_1_1_3 - 2 E_1_2_3 + 2 E_2_2_3 + y_F_1_2_1 <= 2
F_OnlyIf_UB_1_2_1_4: - E_1_1_4 - 2 E_1_2_4 + 2 E_2_2_4 + y_F_1_2_1 <= 2
F_OnlyIf_UB_1_2_1_5: - E_1_1_5 - 2 E_1_2_5 + 2 E_2_2_5 + y_F_1_2_1 <= 2
F_OnlyIf_UB_1_2_3_0: - 2 E_1_0_2 - E_1_0_3 + 2 E_2_0_2 + y_F_1_2_3 <= 2
F_OnlyIf_UB_1_2_3_1: - 2 E_1_1_2 - E_1_1_3 + 2 E_2_1_2 + y_F_1_2_3 <= 2
F_OnlyIf_UB_1_2_3_4: - 2 E_1_2_4 - E_1_3_4 + 2 E_2_2_4 + y_F_1_2_3 <= 2
F_OnlyIf_UB_1_2_3_5: - 2 E_1_2_5 - E_1_3_5 + 2 E_2_2_5 + y_F_1_2_3 <= 2
F_OnlyIf_UB_1_2_4_0: - 2 E_1_0_2 - E_1_0_4 + 2 E_2_0_2 + y_F_1_2_4 <= 2
F_OnlyIf_UB_1_2_4_1: - 2 E_1_1_2 - E_1_1_4 + 2 E_2_1_2 + y_F_1_2_4 <= 2
F_OnlyIf_UB_1_2_4_3: - 2 E_1_2_3 - E_1_3_4 + 2 E_2_2_3 + y_F_1_2_4 <= 2
F_OnlyIf_UB_1_2_4_5: - 2 E_1_2_5 - E_1_4_5 + 2 E_2_2_5 + y_F_1_2_4 <= 2
F_OnlyIf_UB_1_2_5_0: - 2 E_1_0_2 - E_1_0_5 + 2 E_2_0_2 + y_F_1_2_5 <= 2
F_OnlyIf_UB_1_2_5_1: - 2 E_1_1_2 - E_1_1_5 + 2 E_2_1_2 + y_F_1_2_5 <= 2
F_OnlyIf_UB_1_2_5_3: - 2 E_1_2_3 - E_1_3_5 + 2 E_2_2_3 + y_F_1_2_5 <= 2
F_OnlyIf_UB_1_2_5_4: - 2 E_1_2_4 - E_1_4_5 + 2 E_2_2_4 + y_F_1_2_5 <= 2
F_OnlyIf_UB_1_3_0_1: - E_1_0_1 - 2 E_1_1_3 + 2 E_2_1_3 + y_F_1_3_0 <= 2
F_OnlyIf_UB_1_3_0_2: - E_1_0_2 - 2 E_1_2_3 + 2 E_2_2_3 + y_F_1_3_0 <= 2
F_OnlyIf_UB_1_3_0_4: - E_1_0_4 - 2 E_1_3_4 + 2 E_2_3_4 + y_F_1_3_0 <= 2
F_OnlyIf_UB_1_3_0_5: - E_1_0_5 - 2 E_1_3_5 + 2 E_2_3_5 + y_F_1_3_0 <= 2
F_OnlyIf_UB_1_3_1_0: - E_1_0_1 - 2 E_1_0_3 + 2 E_2_0_3 + y_F_1_3_1 <= 2
F_OnlyIf_UB_1_3_1_2: - E_1_1_2 - 2 E_1_2_3 + 2 E_2_2_3 + y_F_1_3_1 <= 2
F_OnlyIf_UB_1_3_1_4: - E_1_1_4 - 2 E_1_3_4 + 2 E_2_3_4 + y_F_1_3_1 <= 2
F_OnlyIf_UB_1_3_1_5: - E_1_1_5 - 2 E_1_3_5 + 2 E_2_3_5 + y_F_1_3_1 <= 2
F_OnlyIf_UB_1_3_2_0: - E_1_0_2 - 2 E_1_0_3 + 2 E_2_0_3 + y_F_1_3_2 <= 2
F_OnlyIf_UB_1_3_2_1: - E_1_1_2 - 2 E_1_1_3 + 2 E_2_1_3 + y_F_1_3_2 <= 2
F_OnlyIf_UB_1_3_2_4: - E_1_2_4 - 2 E_1_3_4 + 2 E_2_3_4 + y_F_1_3_2 <= 2
F_OnlyIf_UB_1_3_2_5: - E_1_2_5 - 2 E_1_3_5 + 2 E_2_3_5 + y_F_1_3_2 <= 2
F_OnlyIf_UB_1_3_4_0: - 2 E_1_0_3 - E_1_0_4 + 2 E_2_0_3 + y_F_1_3_4 <= 2
F_OnlyIf_UB_1_3_4_1: - 2 E_1_1_3 - E_1_1_4 + 2 E_2_1_3 + y_F_1_3_4 <= 2
F_OnlyIf_UB_1_3_4_2: - 2 E_1_2_3 - E_1_2_4 + 2 E_2_2_3 + y_F_1_3_4 <= 2
F_OnlyIf_UB_1_3_4_5: - 2 E_1_3_5 - E_1_4_5 + 2 E_2_3_5 + y_F_1_3_4 <= 2
F_OnlyIf_UB_1_3_5_0: - 2 E_1_0_3 - E_1_0_5 + 2 E_2_0_3 + y_F_1_3_5 <= 2
F_OnlyIf_UB_1_3_5_1: - 2 E_1_1_3 - E_1_1_5 + 2 E_2_1_3 + y_F_1_3_5 <= 2
F_OnlyIf_UB_1_3_5_2: - 2 E_1_2_3 - E_1_2_5 + 2 E_2_2_3 + y_F_1_3_5 <= 2
F_OnlyIf_UB_1_3_5_4: - 2 E_1_3_4 - E_1_4_5 + 2 E_2_3_4 + y_F_1_3_5 <= 2
F_OnlyIf_UB_1_4_0_1: - E_1_0_1 - 2 E_1_1_4 + 2 E_2_1_4 + y_F_1_4_0 <= 2
F_OnlyIf_UB_1_4_0_2: - E_1_0_2 - 2 E_1_2_4 + 2 E_2_2_4 + y_F_1_4_0 <= 2
F_OnlyIf_UB_1_4_0_3: - E_1_0_3 - 2 E_1_3_4 + 2 E_2_3_4 + y_F_1_4_0 <= 2
F_OnlyIf_UB_1_4_0_5: - E_1_0_5 - 2 E_1_4_5 + 2 E_2_4_5 + y_F_1_4_0 <= 2
F_OnlyIf_UB_1_4_1_0: - E_1_0_1 - 2 E_1_0_4 + 2 E_2_0_4 + y_F_1_4_1 <= 2
F_OnlyIf_UB_1_4_1_2: - E_1_1_2 - 2 E_1_2_4 + 2 E_2_2_4 + y_F_1_4_1 <= 2
F_OnlyIf_UB_1_4_1_3: - E_1_1_3 - 2 E_1_3_4 + 2 E_2_3_4 + y_F_1_4_1 <= 2
F_OnlyIf_UB_1_4_1_5: - E_1_1_5 - 2 E_1_4_5 + 2 E_2_4_5 + y_F_1_4_1 <= 2
F_OnlyIf_UB_1_4_2_0: - E_1_0_2 - 2 E_1_0_4 + 2 E_2_0_4 + y_F_1_4_2 <= 2
F_OnlyIf_UB_1_4_2_1: - E_1_1_2 - 2 E_1_1_4 + 2 E_2_1_4 + y_F_1_4_2 <= 2
F_OnlyIf_UB_1_4_2_3: - E_1_2_3 - 2 E_1_3_4 + 2 E_2_3_4 + y_F_1_4_2 <= 2
F_OnlyIf_UB_1_4_2_5: - E_1_2_5 - 2 E_1_4_5 + 2 E_2_4_5 + y_F_1_4_2 <= 2
F_OnlyIf_UB_1_4_3_0: - E_1_0_3 - 2 E_1_0_4 + 2 E_2_0_4 + y_F_1_4_3 <= 2
F_OnlyIf_UB_1_4_3_1: - E_1_1_3 - 2 E_1_1_4 + 2 E_2_1_4 + y_F_1_4_3 <= 2
F_OnlyIf_UB_1_4_3_2: - E_1_2_3 - 2 E_1_2_4 + 2 E_2_2_4 + y_F_1_4_3 <= 2
F_OnlyIf_UB_1_4_3_5: - E_1_3_5 - 2 E_1_4_5 + 2 E_2_4_5 + y_F_1_4_3 <= 2
F_OnlyIf_UB_1_4_5_0: - 2 E_1_0_4 - E_1_0_5 + 2 E_2_0_4 + y_F_1_4_5 <= 2
F_OnlyIf_UB_1_4_5_1: - 2 E_1_1_4 - E_1_1_5 + 2 E_2_1_4 + y_F_1_4_5 <= 2
F_OnlyIf_UB_1_4_5_2: - 2 E_1_2_4 - E_1_2_5 + 2 E_2_2_4 + y_F_1_4_5 <= 2
F_OnlyIf_UB_1_4_5_3: - 2 E_1_3_4 - E_1_3_5 + 2 E_2_3_4 + y_F_1_4_5 <= 2
F_OnlyIf_UB_1_5_0_1: - E_1_0_1 - 2 E_1_1_5 + 2 E_2_1_5 + y_F_1_5_0 <= 2
F_OnlyIf_UB_1_5_0_2: - E_1_0_2 - 2 E_1_2_5 + 2 E_2_2_5 + y_F_1_5_0 <= 2
F_OnlyIf_UB_1_5_0_3: - E_1_0_3 - 2 E_1_3_5 + 2 E_2_3_5 + y_F_1_5_0 <= 2
F_OnlyIf_UB_1_5_0_4: - E_1_0_4 - 2 E_1_4_5 + 2 E_2_4_5 + y_F_1_5_0 <= 2
F_OnlyIf_UB_1_5_1_0: - E_1_0_1 - 2 E_1_0_5 + 2 E_2_0_5 + y_F_1_5_1 <= 2
F_OnlyIf_UB_1_5_1_2: - E_1_1_2 - 2 E_1_2_5 + 2 E_2_2_5 + y_F_1_5_1 <= 2
F_OnlyIf_UB_1_5_1_3: - E_1_1_3 - 2 E_1_3_5 + 2 E_2_3_5 + y_F_1_5_1 <= 2
F_OnlyIf_UB_1_5_1_4: - E_1_1_4 - 2 E_1_4_5 + 2 E_2_4_5 + y_F_1_5_1 <= 2
F_OnlyIf_UB_1_5_2_0: - E_1_0_2 - 2 E_1_0_5 + 2 E_2_0_5 + y_F_1_5_2 <= 2
F_OnlyIf_UB_1_5_2_1: - E_1_1_2 - 2 E_1_1_5 + 2 E_2_1_5 + y_F_1_5_2 <= 2
F_OnlyIf_UB_1_5_2_3: - E_1_2_3 - 2 E_1_3_5 + 2 E_2_3_5 + y_F_1_5_2 <= 2
F_OnlyIf_UB_1_5_2_4: - E_1_2_4 - 2 E_1_4_5 + 2 E_2_4_5 + y_F_1_5_2 <= 2
F_OnlyIf_UB_1_5_3_0: - E_1_0_3 - 2 E_1_0_5 + 2 E_2_0_5 + y_F_1_5_3 <= 2
F_OnlyIf_UB_1_5_3_1: - E_1_1_3 - 2 E_1_1_5 + 2 E_2_1_5 + y_F_1_5_3 <= 2
F_OnlyIf_UB_1_5_3_2: - E_1_2_3 - 2 E_1_2_5 + 2 E_2_2_5 + y_F_1_5_3 <= 2
F_OnlyIf_UB_1_5_3_4: - E_1_3_4 - 2 E_1_4_5 + 2 E_2_4_5 + y_F_1_5_3 <= 2
F_OnlyIf_UB_1_5_4_0: - E_1_0_4 - 2 E_1_0_5 + 2 E_2_0_5 + y_F_1_5_4 <= 2
F_OnlyIf_UB_1_5_4_1: - E_1_1_4 - 2 E_1_1_5 + 2 E_2_1_5 + y_F_1_5_4 <= 2
F_OnlyIf_UB_1_5_4_2: - E_1_2_4 - 2 E_1_2_5 + 2 E_2_2_5 + y_F_1_5_4 <= 2
F_OnlyIf_UB_1_5_4_3: - E_1_3_4 - 2 E_1_3_5 + 2 E_2_3_5 + y_F_1_5_4 <= 2
F_OnlyIf_UB_2_0_1_2: - 2 E_2_0_2 - E_2_1_2 + 2 E_3_0_2 + y_F_2_0_1 <= 2
F_OnlyIf_UB_2_0_1_3: - 2 E_2_0_3 - E_2_1_3 + 2 E_3_0_3 + y_F_2_0_1 <= 2
F_OnlyIf_UB_2_0_1_4: - 2 E_2_0_4 - E_2_1_4 + 2 E_3_0_4 + y_F_2_0_1 <= 2
F_OnlyIf_UB_2_0_1_5: - 2 E_2_0_5 - E_2_1_5 + 2 E_3_0_5 + y_F_2_0_1 <= 2
F_OnlyIf_UB_2_0_2_1: - 2 E_2_0_1 - E_2_1_2 + 2 E_3_0_1 + y_F_2_0_2 <= 2
F_OnlyIf_UB_2_0_2_3: - 2 E_2_0_3 - E_2_2_3 + 2 E_3_0_3 + y_F_2_0_2 <= 2
F_OnlyIf_UB_2_0_2_4: - 2 E_2_0_4 - E_2_2_4 + 2 E_3_0_4 + y_F_2_0_2 <= 2
F_OnlyIf_UB_2_0_2_5: - 2 E_2_0_5 - E_2_2_5 + 2 E_3_0_5 + y_F_2_0_2 <= 2
F_OnlyIf_UB_2_0_3_1: - 2 E_2_0_1 - E_2_1_3 + 2 E_3_0_1 + y_F_2_0_3 <= 2
F_OnlyIf_UB_2_0_3_2: - 2 E_2_0_2 - E_2_2_3 + 2 E_3_0_2 + y_F_2_0_3 <= 2
F_OnlyIf_UB_2_0_3_4: - 2 E_2_0_4 - E_2_3_4 + 2 E_3_0_4 + y_F_2_0_3 <= 2
F_OnlyIf_UB_2_0_3_5: - 2 E_2_0_5 - E_2_3_5 + 2 E_3_0_5 + y_F_2_0_3 <= 2
F_OnlyIf_UB_2_0_4_1: - 2 E_2_0_1 - E_2_1_4 + 2 E_3_0_1 + y_F_2_0_4 <= 2
F_OnlyIf_UB_2_0_4_2: - 2 E_2_0_2 - E_2_2_4 + 2 E_3_0_2 + y_F_2_0_4 <= 2
F_OnlyIf_UB_2_0_4_3: - 2 E_2_0_3 - E_2_3_4 + 2 E_3_0_3 + y_F_2_0_4 <= 2
F_OnlyIf_UB_2_0_4_5: - 2 E_2_0_5 - E_2_4_5 + 2 E_3_0_5 + y_F_2_0_4 <= 2
F_OnlyIf_UB_2_0_5_1: - 2 E_2_0_1 - E_2_1_5 + 2 E_3_0_1 + y_F_2_0_5 <= 2
F_OnlyIf_UB_2_0_5_2: - 2 E_2_0_2 - E_2_2_5 + 2 E_3_0_2 + y_F_2_0_5 <= 2
F_OnlyIf_UB_2_0_5_3: - 2 E_2_0_3 - E_2_3_5 + 2 E_3_0_3 + y_F_2_0_5 <= 2
F_OnlyIf_UB_2_0_5_4: - 2 E_2_0_4 - E_2_4_5 + 2 E_3_0_4 + y_F_2_0_5 <= 2
F_OnlyIf_UB_2_1_0_2: - E_2_0_2 - 2 E_2_1_2 + 2 E_3_1_2 + y_F_2_1_0 <= 2
F_OnlyIf_UB_2_1_0_3: - E_2_0_3 - 2 E_2_1_3 + 2 E_3_1_3 + y_F_2_1_0 <= 2
F_OnlyIf_UB_2_1_0_4: - E_2_0_4 - 2 E_2_1_4 + 2 E_3_1_4 + y_F_2_1_0 <= 2
F_OnlyIf_UB_2_1_0_5: - E_2_0_5 - 2 E_2_1_5 + 2 E_3_1_5 + y_F_2_1_0 <= 2
F_OnlyIf_UB_2_1_2_0: - 2 E_2_0_1 - E_2_0_2 + 2 E_3_0_1 + y_F_2_1_2 <= 2
F_OnlyIf_UB_2_1_2_3: - 2 E_2_1_3 - E_2_2_3 + 2 E_3_1_3 + y_F_2_1_2 <= 2
F_OnlyIf_UB_2_1_2_4: - 2 E_2_1_4 - E_2_2_4 + 2 E_3_1_4 + y_F_2_1_2 <= 2
F_OnlyIf_UB_2_1_2_5: - 2 E_2_1_5 - E_2_2_5 + 2 E_3_1_5 + y_F_2_1_2 <= 2
F_OnlyIf_UB_2_1_3_0: - 2 E_2_0_1 - E_2_0_3 + 2 E_3_0_1 + y_F_2_1_3 <= 2
F_OnlyIf_UB_2_1_3_2: - 2 E_2_1_2 - E_2_2_3 + 2 E_3_1_2 + y_F_2_1_3 <= 2
F_OnlyIf_UB_2_1_3_4: - 2 E_2_1_4 - E_2_3_4 + 2 E_3_1_4 + y_F_2_1_3 <= 2
F_OnlyIf_UB_2_1_3_5: - 2 E_2_1_5 - E_2_3_5 + 2 E_3_1_5 + y_F_2_1_3 <= 2
F_OnlyIf_UB_2_1_4_0: - 2 E_2_0_1 - E_2_0_4 + 2 E_3_0_1 + y_F_2_1_4 <= 2
F_OnlyIf_UB_2_1_4_2: - 2 E_2_1_2 - E_2_2_4 + 2 E_3_1_2 + y_F_2_1_4 <= 2
F_OnlyIf_UB_2_1_4_3: - 2 E_2_1_3 - E_2_3_4 + 2 E_3_1_3 + y_F_2_1_4 <= 2
F_OnlyIf_UB_2_1_4_5: - 2 E_2_1_5 - E_2_4_5 + 2 E_3_1_5 + y_F_2_1_4 <= 2
F_OnlyIf_UB_2_1_5_0: - 2 E_2_0_1 - E_2_0_5 + 2 E_3_0_1 + y_F_2_1_5 <= 2
F_OnlyIf_UB_2_1_5_2: - 2 E_2_1_2 - E_2_2_5 + 2 E_3_1_2 + y_F_2_1_5 <= 2
F_OnlyIf_UB_2_1_5_3: - 2 E_2_1_3 - E_2_3_5 + 2 E_3_1_3 + y_F_2_1_5 <= 2
F_OnlyIf_UB_2_1_5_4: - 2 E_2_1_4 - E_2_4_5 + 2 E_3_1_4 + y_F_2_1_5 <= 2
F_OnlyIf_UB_2_2_0_1: - E_2_0_1 - 2 E_2_1_2 + 2 E_3_1_2 + y_F_2_2_0 <= 2
F_OnlyIf_UB_2_2_0_3: - E_2_0_3 - 2 E_2_2_3 + 2 E_3_2_3 + y_F_2_2_0 <= 2
F_OnlyIf_UB_2_2_0_4: - E_2_0_4 - 2 E_2_2_4 + 2 E_3_2_4 + y_F_2_2_0 <= 2
F_OnlyIf_UB_2_2_0_5: - E_2_0_5 - 2 E_2_2_5 + 2 E_3_2_5 + y_F_2_2_0 <= 2
F_OnlyIf_UB_2_2_1_0: - E_2_0_1 - 2 E_2_0_2 + 2 E_3_0_2 + y_F_2_2_1 <= 2
F_OnlyIf_UB_2_2_1_3: - E_2_1_3 - 2 E_2_2_3 + 2 E_3_2_3 + y_F_2_2_1 <= 2
F_OnlyIf_UB_2_2_1_4: - E_2_1_4 - 2 E_2_2_4 + 2 E_3_2_4 + y_F_2_2_1 <= 2
F_OnlyIf_UB_2_2_1_5: - E_2_1_5 - 2 E_2_2_5 + 2 E_3_2_5 + y_F_2_2_1 <= 2
F_OnlyIf_UB_2_2_3_0: - 2 E_2_0_2 - E_2_0_3 + 2 E_3_0_2 + y_F_2_2_3 <= 2
F_OnlyIf_UB_2_2_3_1: - 2 E_2_1_2 - E_2_1_3 + 2 E_3_1_2 + y_F_2_2_3 <= 2
F_OnlyIf_UB_2_2_3_4: - 2 E_2_2_4 - E_2_3_4 + 2 E_3_2_4 + y_F_2_2_3 <= 2
F_OnlyIf_UB_2_2_3_5: - 2 E_2_2_5 - E_2_3_5 + 2 E_3_2_5 + y_F_2_2_3 <= 2
F_OnlyIf_UB_2_2_4_0: - 2 E_2_0_2 - E_2_0_4 + 2 E_3_0_2 + y_F_2_2_4 <= 2
F_OnlyIf_UB_2_2_4_1: - 2 E_2_1_2 - E_2_1_4 + 2 E_3_1_2 + y_F_2_2_4 <= 2
F_OnlyIf_UB_2_2_4_3: - 2 E_2_2_3 - E_2_3_4 + 2 E_3_2_3 + y_F_2_2_4 <= 2
F_OnlyIf_UB_2_2_4_5: - 2 E_2_2_5 - E_2_4_5 + 2 E_3_2_5 + y_F_2_2_4 <= 2
F_OnlyIf_UB_2_2_5_0: - 2 E_2_0_2 - E_2_0_5 + 2 E_3_0_2 + y_F_2_2_5 <= 2
F_OnlyIf_UB_2_2_5_1: - 2 E_2_1_2 - E_2_1_5 + 2 E_3_1_2 + y_F_2_2_5 <= 2
F_OnlyIf_UB_2_2_5_3: - 2 E_2_2_3 - E_2_3_5 + 2 E_3_2_3 + y_F_2_2_5 <= 2
F_OnlyIf_UB_2_2_5_4: - 2 E_2_2_4 - E_2_4_5 + 2 E_3_2_4 + y_F_2_2_5 <= 2
F_OnlyIf_UB_2_3_0_1: - E_2_0_1 - 2 E_2_1_3 + 2 E_3_1_3 + y_F_2_3_0 <= 2
F_OnlyIf_UB_2_3_0_2: - E_2_0_2 - 2 E_2_2_3 + 2 E_3_2_3 + y_F_2_3_0 <= 2
F_OnlyIf_UB_2_3_0_4: - E_2_0_4 - 2 E_2_3_4 + 2 E_3_3_4 + y_F_2_3_0 <= 2
F_OnlyIf_UB_2_3_0_5: - E_2_0_5 - 2 E_2_3_5 + 2 E_3_3_5 + y_F_2_3_0 <= 2
F_OnlyIf_UB_2_3_1_0: - E_2_0_1 - 2 E_2_0_3 + 2 E_3_0_3 + y_F_2_3_1 <= 2
F_OnlyIf_UB_2_3_1_2: - E_2_1_2 - 2 E_2_2_3 + 2 E_3_2_3 + y_F_2_3_1 <= 2
F_OnlyIf_UB_2_3_1_4: - E_2_1_4 - 2 E_2_3_4 + 2 E_3_3_4 + y_F_2_3_1 <= 2
F_OnlyIf_UB_2_3_1_5: - E_2_1_5 - 2 E_2_3_5 + 2 E_3_3_5 + y_F_2_3_1 <= 2
F_OnlyIf_UB_2_3_2_0: - E_2_0_2 - 2 E_2_0_3 + 2 E_3_0_3 + y_F_2_3_2 <= 2
F_OnlyIf_UB_2_3_2_1: - E_2_1_2 - 2 E_2_1_3 + 2 E_3_1_3 + y_F_2_3_2 <= 2
F_OnlyIf_UB_2_3_2_4: - E_2_2_4 - 2 E_2_3_4 + 2 E_3_3_4 + y_F_2_3_2 <= 2
F_OnlyIf_UB_2_3_2_5: - E_2_2_5 - 2 E_2_3_5 + 2 E_3_3_5 + y_F_2_3_2 <= 2
F_OnlyIf_UB_2_3_4_0: - 2 E_2_0_3 - E_2_0_4 + 2 E_3_0_3 + y_F_2_3_4 <= 2
F_OnlyIf_UB_2_3_4_1: - 2 E_2_1_3 - E_2_1_4 + 2 E_3_1_3 + y_F_2_3_4 <= 2
F_OnlyIf_UB_2_3_4_2: - 2 E_2_2_3 - E_2_2_4 + 2 E_3_2_3 + y_F_2_3_4 <= 2
F_OnlyIf_UB_2_3_4_5: - 2 E_2_3_5 - E_2_4_5 + 2 E_3_3_5 + y_F_2_3_4 <= 2
F_OnlyIf_UB_2_3_5_0: - 2 E_2_0_3 - E_2_0_5 + 2 E_3_0_3 + y_F_2_3_5 <= 2
F_OnlyIf_UB_2_3_5_1: - 2 E_2_1_3 - E_2_1_5 + 2 E_3_1_3 + y_F_2_3_5 <= 2
F_OnlyIf_UB_2_3_5_2: - 2 E_2_2_3 - E_2_2_5 + 2 E_3_2_3 + y_F_2_3_5 <= 2
F_OnlyIf_UB_2_3_5_4: - 2 E_2_3_4 - E_2_4_5 + 2 E_3_3_4 + y_F_2_3_5 <= 2
F_OnlyIf_UB_2_4_0_1: - E_2_0_1 - 2 E_2_1_4 + 2 E_3_1_4 + y_F_2_4_0 <= 2
F_OnlyIf_UB_2_4_0_2: - E_2_0_2 - 2 E_2_2_4 + 2 E_3_2_4 + y_F_2_4_0 <= 2
F_OnlyIf_UB_2_4_0_3: - E_2_0_3 - 2 E_2_3_4 + 2 E_3_3_4 + y_F_2_4_0 <= 2
F_OnlyIf_UB_2_4_0_5: - E_2_0_5 - 2 E_2_4_5 + 2 E_3_4_5 + y_F_2_4_0 <= 2
F_OnlyIf_UB_2_4_1_0: - E_2_0_1 - 2 E_2_0_4 + 2 E_3_0_4 + y_F_2_4_1 <= 2
F_OnlyIf_UB_2_4_1_2: - E_2_1_2 - 2 E_2_2_4 + 2 E_3_2_4 + y_F_2_4_1 <= 2
F_OnlyIf_UB_2_4_1_3: - E_2_1_3 - 2 E_2_3_4 + 2 E_3_3_4 + y_F_2_4_1 <= 2
F_OnlyIf_UB_2_4_1_5: - E_2_1_5 - 2 E_2_4_5 + 2 E_3_4_5 + y_F_2_4_1 <= 2
F_OnlyIf_UB_2_4_2_0: - E_2_0_2 - 2 E_2_0_4 + 2 E_3_0_4 + y_F_2_4_2 <= 2
F_OnlyIf_UB_2_4_2_1: - E_2_1_2 - 2 E_2_1_4 + 2 E_3_1_4 + y_F_2_4_2 <= 2
F_OnlyIf_UB_2_4_2_3: - E_2_2_3 - 2 E_2_3_4 + 2 E_3_3_4 + y_F_2_4_2 <= 2
F_OnlyIf_UB_2_4_2_5: - E_2_2_5 - 2 E_2_4_5 + 2 E_3_4_5 + y_F_2_4_2 <= 2
F_OnlyIf_UB_2_4_3_0: - E_2_0_3 - 2 E_2_0_4 + 2 E_3_0_4 + y_F_2_4_3 <= 2
F_OnlyIf_UB_2_4_3_1: - E_2_1_3 - 2 E_2_1_4 + 2 E_3_1_4 + y_F_2_4_3 <= 2
F_OnlyIf_UB_2_4_3_2: - E_2_2_3 - 2 E_2_2_4 + 2 E_3_2_4 + y_F_2_4_3 <= 2
F_OnlyIf_UB_2_4_3_5: - E_2_3_5 - 2 E_2_4_5 + 2 E_3_4_5 + y_F_2_4_3 <= 2
F_OnlyIf_UB_2_4_5_0: - 2 E_2_0_4 - E_2_0_5 + 2 E_3_0_4 + y_F_2_4_5 <= 2
F_OnlyIf_UB_2_4_5_1: - 2 E_2_1_4 - E_2_1_5 + 2 E_3_1_4 + y_F_2_4_5 <= 2
F_OnlyIf_UB_2_4_5_2: - 2 E_2_2_4 - E_2_2_5 + 2 E_3_2_4 + y_F_2_4_5 <= 2
F_OnlyIf_UB_2_4_5_3: - 2 E_2_3_4 - E_2_3_5 + 2 E_3_3_4 + y_F_2_4_5 <= 2
F_OnlyIf_UB_2_5_0_1: - E_2_0_1 - 2 E_2_1_5 + 2 E_3_1_5 + y_F_2_5_0 <= 2
F_OnlyIf_UB_2_5_0_2: - E_2_0_2 - 2 E_2_2_5 + 2 E_3_2_5 + y_F_2_5_0 <= 2
F_OnlyIf_UB_2_5_0_3: - E_2_0_3 - 2 E_2_3_5 + 2 E_3_3_5 + y_F_2_5_0 <= 2
F_OnlyIf_UB_2_5_0_4: - E_2_0_4 - 2 E_2_4_5 + 2 E_3_4_5 + y_F_2_5_0 <= 2
F_OnlyIf_UB_2_5_1_0: - E_2_0_1 - 2 E_2_0_5 + 2 E_3_0_5 + y_F_2_5_1 <= 2
F_OnlyIf_UB_2_5_1_2: - E_2_1_2 - 2 E_2_2_5 + 2 E_3_2_5 + y_F_2_5_1 <= 2
F_OnlyIf_UB_2_5_1_3: - E_2_1_3 - 2 E_2_3_5 + 2 E_3_3_5 + y_F_2_5_1 <= 2
F_OnlyIf_UB_2_5_1_4: - E_2_1_4 - 2 E_2_4_5 + 2 E_3_4_5 + y_F_2_5_1 <= 2
F_OnlyIf_UB_2_5_2_0: - E_2_0_2 - 2 E_2_0_5 + 2 E_3_0_5 + y_F_2_5_2 <= 2
F_OnlyIf_UB_2_5_2_1: - E_2_1_2 - 2 E_2_1_5 + 2 E_3_1_5 + y_F_2_5_2 <= 2
F_OnlyIf_UB_2_5_2_3: - E_2_2_3 - 2 E_2_3_5 + 2 E_3_3_5 + y_F_2_5_2 <= 2
F_OnlyIf_UB_2_5_2_4: - E_2_2_4 - 2 E_2_4_5 + 2 E_3_4_5 + y_F_2_5_2 <= 2
F_OnlyIf_UB_2_5_3_0: - E_2_0_3 - 2 E_2_0_5 + 2 E_3_0_5 + y_F_2_5_3 <= 2
F_OnlyIf_UB_2_5_3_1: - E_2_1_3 - 2 E_2_1_5 + 2 E_3_1_5 + y_F_2_5_3 <= 2
F_OnlyIf_UB_2_5_3_2: - E_2_2_3 - 2 E_2_2_5 + 2 E_3_2_5 + y_F_2_5_3 <= 2
F_OnlyIf_UB_2_5_3_4: - E_2_3_4 - 2 E_2_4_5 + 2 E_3_4_5 + y_F_2_5_3 <= 2
F_OnlyIf_UB_2_5_4_0: - E_2_0_4 - 2 E_2_0_5 + 2 E_3_0_5 + y_F_2_5_4 <= 2
F_OnlyIf_UB_2_5_4_1: - E_2_1_4 - 2 E_2_1_5 + 2 E_3_1_5 + y_F_2_5_4 <= 2
F_OnlyIf_UB_2_5_4_2: - E_2_2_4 - 2 E_2_2_5 + 2 E_3_2_5 + y_F_2_5_4 <= 2
F_OnlyIf_UB_2_5_4_3: - E_2_3_4 - 2 E_2_3_5 + 2 E_3_3_5 + y_F_2_5_4 <= 2
F_OnlyIf_UB_3_0_1_2: - 2 E_3_0_2 - E_3_1_2 + 2 E_4_0_2 + y_F_3_0_1 <= 2
F_OnlyIf_UB_3_0_1_3: - 2 E_3_0_3 - E_3_1_3 + 2 E_4_0_3 + y_F_3_0_1 <= 2
F_OnlyIf_UB_3_0_1_4: - 2 E_3_0_4 - E_3_1_4 + 2 E_4_0_4 + y_F_3_0_1 <= 2
F_OnlyIf_UB_3_0_1_5: - 2 E_3_0_5 - E_3_1_5 + 2 E_4_0_5 + y_F_3_0_1 <= 2
F_OnlyIf_UB_3_0_2_1: - 2 E_3_0_1 - E_3_1_2 + 2 E_4_0_1 + y_F_3_0_2 <= 2
F_OnlyIf_UB_3_0_2_3: - 2 E_3_0_3 - E_3_2_3 + 2 E_4_0_3 + y_F_3_0_2 <= 2
F_OnlyIf_UB_3_0_2_4: - 2 E_3_0_4 - E_3_2_4 + 2 E_4_0_4 + y_F_3_0_2 <= 2
F_OnlyIf_UB_3_0_2_5: - 2 E_3_0_5 - E_3_2_5 + 2 E_4_0_5 + y_F_3_0_2 <= 2
F_OnlyIf_UB_3_0_3_1: - 2 E_3_0_1 - E_3_1_3 + 2 E_4_0_1 + y_F_3_0_3 <= 2
F_OnlyIf_UB_3_0_3_2: - 2 E_3_0_2 - E_3_2_3 + 2 E_4_0_2 + y_F_3_0_3 <= 2
F_OnlyIf_UB_3_0_3_4: - 2 E_3_0_4 - E_3_3_4 + 2 E_4_0_4 + y_F_3_0_3 <= 2
F_OnlyIf_UB_3_0_3_5: - 2 E_3_0_5 - E_3_3_5 + 2 E_4_0_5 + y_F_3_0_3 <= 2
F_OnlyIf_UB_3_0_4_1: - 2 E_3_0_1 - E_3_1_4 + 2 E_4_0_1 + y_F_3_0_4 <= 2
F_OnlyIf_UB_3_0_4_2: - 2 E_3_0_2 - E_3_2_4 + 2 E_4_0_2 + y_F_3_0_4 <= 2
F_OnlyIf_UB_3_0_4_3: - 2 E_3_0_3 - E_3_3_4 + 2 E_4_0_3 + y_F_3_0_4 <= 2
F_OnlyIf_UB_3_0_4_5: - 2 E_3_0_5 - E_3_4_5 + 2 E_4_0_5 + y_F_3_0_4 <= 2
F_OnlyIf_UB_3_0_5_1: - 2 E_3_0_1 - E_3_1_5 + 2 E_4_0_1 + y_F_3_0_5 <= 2
F_OnlyIf_UB_3_0_5_2: - 2 E_3_0_2 - E_3_2_5 + 2 E_4_0_2 + y_F_3_0_5 <= 2
F_OnlyIf_UB_3_0_5_3: - 2 E_3_0_3 - E_3_3_5 + 2 E_4_0_3 + y_F_3_0_5 <= 2
F_OnlyIf_UB_3_0_5_4: - 2 E_3_0_4 - E_3_4_5 + 2 E_4_0_4 + y_F_3_0_5 <= 2
F_OnlyIf_UB_3_1_0_2: - E_3_0_2 - 2 E_3_1_2 + 2 E_4_1_2 + y_F_3_1_0 <= 2
F_OnlyIf_UB_3_1_0_3: - E_3_0_3 - 2 E_3_1_3 + 2 E_4_1_3 + y_F_3_1_0 <= 2
F_OnlyIf_UB_3_1_0_4: - E_3_0_4 - 2 E_3_1_4 + 2 E_4_1_4 + y_F_3_1_0 <= 2
F_OnlyIf_UB_3_1_0_5: - E_3_0_5 - 2 E_3_1_5 + 2 E_4_1_5 + y_F_3_1_0 <= 2
F_OnlyIf_UB_3_1_2_0: - 2 E_3_0_1 - E_3_0_2 + 2 E_4_0_1 + y_F_3_1_2 <= 2
F_OnlyIf_UB_3_1_2_3: - 2 E_3_1_3 - E_3_2_3 + 2 E_4_1_3 + y_F_3_1_2 <= 2
F_OnlyIf_UB_3_1_2_4: - 2 E_3_1_4 - E_3_2_4 + 2 E_4_1_4 + y_F_3_1_2 <= 2
F_OnlyIf_UB_3_1_2_5: - 2 E_3_1_5 - E_3_2_5 + 2 E_4_1_5 + y_F_3_1_2 <= 2
F_OnlyIf_UB_3_1_3_0: - 2 E_3_0_1 - E_3_0_3 + 2 E_4_0_1 + y_F_3_1_3 <= 2
F_OnlyIf_UB_3_1_3_2: - 2 E_3_1_2 - E_3_2_3 + 2 E_4_1_2 + y_F_3_1_3 <= 2
F_OnlyIf_UB_3_1_3_4: - 2 E_3_1_4 - E_3_3_4 + 2 E_4_1_4 + y_F_3_1_3 <= 2
F_OnlyIf_UB_3_1_3_5: - 2 E_3_1_5 - E_3_3_5 + 2 E_4_1_5 + y_F_3_1_3 <= 2
F_OnlyIf_UB_3_1_4_0: - 2 E_3_0_1 - E_3_0_4 + 2 E_4_0_1 + y_F_3_1_4 <= 2
F_OnlyIf_UB_3_1_4_2: - 2 E_3_1_2 - E_3_2_4 + 2 E_4_1_2 + y_F_3_1_4 <= 2
F_OnlyIf_UB_3_1_4_3: - 2 E_3_1_3 - E_3_3_4 + 2 E_4_1_3 + y_F_3_1_4 <= 2
F_OnlyIf_UB_3_1_4_5: - 2 E_3_1_5 - E_3_4_5 + 2 E_4_1_5 + y_F_3_1_4 <= 2
F_OnlyIf_UB_3_1_5_0: - 2 E_3_0_1 - E_3_0_5 + 2 E_4_0_1 + y_F_3_1_5 <= 2
F_OnlyIf_UB_3_1_5_2: - 2 E_3_1_2 - E_3_2_5 + 2 E_4_1_2 + y_F_3_1_5 <= 2
F_OnlyIf_UB_3_1_5_3: - 2 E_3_1_3 - E_3_3_5 + 2 E_4_1_3 + y_F_3_1_5 <= 2
F_OnlyIf_UB_3_1_5_4: - 2 E_3_1_4 - E_3_4_5 + 2 E_4_1_4 + y_F_3_1_5 <= 2
F_OnlyIf_UB_3_2_0_1: - E_3_0_1 - 2 E_3_1_2 + 2 E_4_1_2 + y_F_3_2_0 <= 2
F_OnlyIf_UB_3_2_0_3: - E_3_0_3 - 2 E_3_2_3 + 2 E_4_2_3 + y_F_3_2_0 <= 2
F_OnlyIf_UB_3_2_0_4: - E_3_0_4 - 2 E_3_2_4 + 2 E_4_2_4 + y_F_3_2_0 <= 2
F_OnlyIf_UB_3_2_0_5: - E_3_0_5 - 2 E_3_2_5 + 2 E_4_2_5 + y_F_3_2_0 <= 2
F_OnlyIf_UB_3_2_1_0: - E_3_0_1 - 2 E_3_0_2 + 2 E_4_0_2 + y_F_3_2_1 <= 2
F_OnlyIf_UB_3_2_1_3: - E_3_1_3 - 2 E_3_2_3 + 2 E_4_2_3 + y_F_3_2_1 <= 2
F_OnlyIf_UB_3_2_1_4: - E_3_1_4 - 2 E_3_2_4 + 2 E_4_2_4 + y_F_3_2_1 <= 2
F_OnlyIf_UB_3_2_1_5: - E_3_1_5 - 2 E_3_2_5 + 2 E_4_2_5 + y_F_3_2_1 <= 2
F_OnlyIf_UB_3_2_3_0: - 2 E_3_0_2 - E_3_0_3 + 2 E_4_0_2 + y_F_3_2_3 <= 2
F_OnlyIf_UB_3_2_3_1: - 2 E_3_1_2 - E_3_1_3 + 2 E_4_1_2 + y_F_3_2_3 <= 2
F_OnlyIf_UB_3_2_3_4: - 2 E_3_2_4 - E_3_3_4 + 2 E_4_2_4 + y_F_3_2_3 <= 2
F_OnlyIf_UB_3_2_3_5: - 2 E_3_2_5 - E_3_3_5 + 2 E_4_2_5 + y_F_3_2_3 <= 2
F_OnlyIf_UB_3_2_4_0: - 2 E_3_0_2 - E_3_0_4 + 2 E_4_0_2 + y_F_3_2_4 <= 2
F_OnlyIf_UB_3_2_4_1: - 2 E_3_1_2 - E_3_1_4 + 2 E_4_1_2 + y_F_3_2_4 <= 2
F_OnlyIf_UB_3_2_4_3: - 2 E_3_2_3 - E_3_3_4 + 2 E_4_2_3 + y_F_3_2_4 <= 2
F_OnlyIf_UB_3_2_4_5: - 2 E_3_2_5 - E_3_4_5 + 2 E_4_2_5 + y_F_3_2_4 <= 2
F_OnlyIf_UB_3_2_5_0: - 2 E_3_0_2 - E_3_0_5 + 2 E_4_0_2 + y_F_3_2_5 <= 2
F_OnlyIf_UB_3_2_5_1: - 2 E_3_1_2 - E_3_1_5 + 2 E_4_1_2 + y_F_3_2_5 <= 2
F_OnlyIf_UB_3_2_5_3: - 2 E_3_2_3 - E_3_3_5 + 2 E_4_2_3 + y_F_3_2_5 <= 2
F_OnlyIf_UB_3_2_5_4: - 2 E_3_2_4 - E_3_4_5 + 2 E_4_2_4 + y_F_3_2_5 <= 2
F_OnlyIf_UB_3_3_0_1: - E_3_0_1 - 2 E_3_1_3 + 2 E_4_1_3 + y_F_3_3_0 <= 2
F_OnlyIf_UB_3_3_0_2: - E_3_0_2 - 2 E_3_2_3 + 2 E_4_2_3 + y_F_3_3_0 <= 2
F_OnlyIf_UB_3_3_0_4: - E_3_0_4 - 2 E_3_3_4 + 2 E_4_3_4 + y_F_3_3_0 <= 2
F_OnlyIf_UB_3_3_0_5: - E_3_0_5 - 2 E_3_3_5 + 2 E_4_3_5 + y_F_3_3_0 <= 2
F_OnlyIf_UB_3_3_1_0: - E_3_0_1 - 2 E_3_0_3 + 2 E_4_0_3 + y_F_3_3_1 <= 2
F_OnlyIf_UB_3_3_1_2: - E_3_1_2 - 2 E_3_2_3 + 2 E_4_2_3 + y_F_3_3_1 <= 2
F_OnlyIf_UB_3_3_1_4: - E_3_1_4 - 2 E_3_3_4 + 2 E_4_3_4 + y_F_3_3_1 <= 2
F_OnlyIf_UB_3_3_1_5: - E_3_1_5 - 2 E_3_3_5 + 2 E_4_3_5 + y_F_3_3_1 <= 2
F_OnlyIf_UB_3_3_2_0: - E_3_0_2 - 2 E_3_0_3 + 2 E_4_0_3 + y_F_3_3_2 <= 2
F_OnlyIf_UB_3_3_2_1: - E_3_1_2 - 2 E_3_1_3 + 2 E_4_1_3 + y_F_3_3_2 <= 2
F_OnlyIf_UB_3_3_2_4: - E_3_2_4 - 2 E_3_3_4 + 2 E_4_3_4 + y_F_3_3_2 <= 2
F_OnlyIf_UB_3_3_2_5: - E_3_2_5 - 2 E_3_3_5 + 2 E_4_3_5 + y_F_3_3_2 <= 2
F_OnlyIf_UB_3_3_4_0: - 2 E_3_0_3 - E_3_0_4 + 2 E_4_0_3 + y_F_3_3_4 <= 2
F_OnlyIf_UB_3_3_4_1: - 2 E_3_1_3 - E_3_1_4 + 2 E_4_1_3 + y_F_3_3_4 <= 2
F_OnlyIf_UB_3_3_4_2: - 2 E_3_2_3 - E_3_2_4 + 2 E_4_2_3 + y_F_3_3_4 <= 2
F_OnlyIf_UB_3_3_4_5: - 2 E_3_3_5 - E_3_4_5 + 2 E_4_3_5 + y_F_3_3_4 <= 2
F_OnlyIf_UB_3_3_5_0: - 2 E_3_0_3 - E_3_0_5 + 2 E_4_0_3 + y_F_3_3_5 <= 2
F_OnlyIf_UB_3_3_5_1: - 2 E_3_1_3 - E_3_1_5 + 2 E_4_1_3 + y_F_3_3_5 <= 2
F_OnlyIf_UB_3_3_5_2: - 2 E_3_2_3 - E_3_2_5 + 2 E_4_2_3 + y_F_3_3_5 <= 2
F_OnlyIf_UB_3_3_5_4: - 2 E_3_3_4 - E_3_4_5 + 2 E_4_3_4 + y_F_3_3_5 <= 2
F_OnlyIf_UB_3_4_0_1: - E_3_0_1 - 2 E_3_1_4 + 2 E_4_1_4 + y_F_3_4_0 <= 2
F_OnlyIf_UB_3_4_0_2: - E_3_0_2 - 2 E_3_2_4 + 2 E_4_2_4 + y_F_3_4_0 <= 2
F_OnlyIf_UB_3_4_0_3: - E_3_0_3 - 2 E_3_3_4 + 2 E_4_3_4 + y_F_3_4_0 <= 2
F_OnlyIf_UB_3_4_0_5: - E_3_0_5 - 2 E_3_4_5 + 2 E_4_4_5 + y_F_3_4_0 <= 2
F_OnlyIf_UB_3_4_1_0: - E_3_0_1 - 2 E_3_0_4 + 2 E_4_0_4 + y_F_3_4_1 <= 2
F_OnlyIf_UB_3_4_1_2: - E_3_1_2 - 2 E_3_2_4 + 2 E_4_2_4 + y_F_3_4_1 <= 2
F_OnlyIf_UB_3_4_1_3: - E_3_1_3 - 2 E_3_3_4 + 2 E_4_3_4 + y_F_3_4_1 <= 2
F_OnlyIf_UB_3_4_1_5: - E_3_1_5 - 2 E_3_4_5 + 2 E_4_4_5 + y_F_3_4_1 <= 2
F_OnlyIf_UB_3_4_2_0: - E_3_0_2 - 2 E_3_0_4 + 2 E_4_0_4 + y_F_3_4_2 <= 2
F_OnlyIf_UB_3_4_2_1: - E_3_1_2 - 2 E_3_1_4 + 2 E_4_1_4 + y_F_3_4_2 <= 2
F_OnlyIf_UB_3_4_2_3: - E_3_2_3 - 2 E_3_3_4 + 2 E_4_3_4 + y_F_3_4_2 <= 2
F_OnlyIf_UB_3_4_2_5: - E_3_2_5 - 2 E_3_4_5 + 2 E_4_4_5 + y_F_3_4_2 <= 2
F_OnlyIf_UB_3_4_3_0: - E_3_0_3 - 2 E_3_0_4 + 2 E_4_0_4 + y_F_3_4_3 <= 2
F_OnlyIf_UB_3_4_3_1: - E_3_1_3 - 2 E_3_1_4 + 2 E_4_1_4 + y_F_3_4_3 <= 2
F_OnlyIf_UB_3_4_3_2: - E_3_2_3 - 2 E_3_2_4 + 2 E_4_2_4 + y_F_3_4_3 <= 2
F_OnlyIf_UB_3_4_3_5: - E_3_3_5 - 2 E_3_4_5 + 2 E_4_4_5 + y_F_3_4_3 <= 2
F_OnlyIf_UB_3_4_5_0: - 2 E_3_0_4 - E_3_0_5 + 2 E_4_0_4 + y_F_3_4_5 <= 2
F_OnlyIf_UB_3_4_5_1: - 2 E_3_1_4 - E_3_1_5 + 2 E_4_1_4 + y_F_3_4_5 <= 2
F_OnlyIf_UB_3_4_5_2: - 2 E_3_2_4 - E_3_2_5 + 2 E_4_2_4 + y_F_3_4_5 <= 2
F_OnlyIf_UB_3_4_5_3: - 2 E_3_3_4 - E_3_3_5 + 2 E_4_3_4 + y_F_3_4_5 <= 2
F_OnlyIf_UB_3_5_0_1: - E_3_0_1 - 2 E_3_1_5 + 2 E_4_1_5 + y_F_3_5_0 <= 2
F_OnlyIf_UB_3_5_0_2: - E_3_0_2 - 2 E_3_2_5 + 2 E_4_2_5 + y_F_3_5_0 <= 2
F_OnlyIf_UB_3_5_0_3: - E_3_0_3 - 2 E_3_3_5 + 2 E_4_3_5 + y_F_3_5_0 <= 2
F_OnlyIf_UB_3_5_0_4: - E_3_0_4 - 2 E_3_4_5 + 2 E_4_4_5 + y_F_3_5_0 <= 2
F_OnlyIf_UB_3_5_1_0: - E_3_0_1 - 2 E_3_0_5 + 2 E_4_0_5 + y_F_3_5_1 <= 2
F_OnlyIf_UB_3_5_1_2: - E_3_1_2 - 2 E_3_2_5 + 2 E_4_2_5 + y_F_3_5_1 <= 2
F_OnlyIf_UB_3_5_1_3: - E_3_1_3 - 2 E_3_3_5 + 2 E_4_3_5 + y_F_3_5_1 <= 2
F_OnlyIf_UB_3_5_1_4: - E_3_1_4 - 2 E_3_4_5 + 2 E_4_4_5 + y_F_3_5_1 <= 2
F_OnlyIf_UB_3_5_2_0: - E_3_0_2 - 2 E_3_0_5 + 2 E_4_0_5 + y_F_3_5_2 <= 2
F_OnlyIf_UB_3_5_2_1: - E_3_1_2 - 2 E_3_1_5 + 2 E_4_1_5 + y_F_3_5_2 <= 2
F_OnlyIf_UB_3_5_2_3: - E_3_2_3 - 2 E_3_3_5 + 2 E_4_3_5 + y_F_3_5_2 <= 2
F_OnlyIf_UB_3_5_2_4: - E_3_2_4 - 2 E_3_4_5 + 2 E_4_4_5 + y_F_3_5_2 <= 2
F_OnlyIf_UB_3_5_3_0: - E_3_0_3 - 2 E_3_0_5 + 2 E_4_0_5 + y_F_3_5_3 <= 2
F_OnlyIf_UB_3_5_3_1: - E_3_1_3 - 2 E_3_1_5 + 2 E_4_1_5 + y_F_3_5_3 <= 2
F_OnlyIf_UB_3_5_3_2: - E_3_2_3 - 2 E_3_2_5 + 2 E_4_2_5 + y_F_3_5_3 <= 2
F_OnlyIf_UB_3_5_3_4: - E_3_3_4 - 2 E_3_4_5 + 2 E_4_4_5 + y_F_3_5_3 <= 2
F_OnlyIf_UB_3_5_4_0: - E_3_0_4 - 2 E_3_0_5 + 2 E_4_0_5 + y_F_3_5_4 <= 2
F_OnlyIf_UB_3_5_4_1: - E_3_1_4 - 2 E_3_1_5 + 2 E_4_1_5 + y_F_3_5_4 <= 2
F_OnlyIf_UB_3_5_4_2: - E_3_2_4 - 2 E_3_2_5 + 2 E_4_2_5 + y_F_3_5_4 <= 2
F_OnlyIf_UB_3_5_4_3: - E_3_3_4 - 2 E_3_3_5 + 2 E_4_3_5 + y_F_3_5_4 <= 2
Global_E_LB_0_0_1: E_0_0_1 - E_1_0_1 - y_CZ_0_0_1 + y_CZ_active_0
 - 2 y_F_0_0_0 - 2 y_F_0_0_1 - y_F_0_0_2 - y_F_0_0_3 - y_F_0_0_4 - y_F_0_0_5
 - 2 y_F_0_1_0 - 2 y_F_0_1_1 - y_F_0_1_2 - y_F_0_1_3 - y_F_0_1_4 - y_F_0_1_5
 - y_F_0_2_0 - y_F_0_2_1 - y_F_0_3_0 - y_F_0_3_1 - y_F_0_4_0 - y_F_0_4_1
 - y_F_0_5_0 - y_F_0_5_1 + y_F_active_0 <= 1
Global_E_LB_0_0_2: E_0_0_2 - E_1_0_2 - y_CZ_0_0_2 + y_CZ_active_0
 - 2 y_F_0_0_0 - y_F_0_0_1 - 2 y_F_0_0_2 - y_F_0_0_3 - y_F_0_0_4 - y_F_0_0_5
 - y_F_0_1_0 - y_F_0_1_2 - 2 y_F_0_2_0 - y_F_0_2_1 - 2 y_F_0_2_2 - y_F_0_2_3
 - y_F_0_2_4 - y_F_0_2_5 - y_F_0_3_0 - y_F_0_3_2 - y_F_0_4_0 - y_F_0_4_2
 - y_F_0_5_0 - y_F_0_5_2 + y_F_active_0 <= 1
Global_E_LB_0_0_3: E_0_0_3 - E_1_0_3 - y_CZ_0_0_3 + y_CZ_active_0
 - 2 y_F_0_0_0 - y_F_0_0_1 - y_F_0_0_2 - 2 y_F_0_0_3 - y_F_0_0_4 - y_F_0_0_5
 - y_F_0_1_0 - y_F_0_1_3 - y_F_0_2_0 - y_F_0_2_3 - 2 y_F_0_3_0 - y_F_0_3_1
 - y_F_0_3_2 - 2 y_F_0_3_3 - y_F_0_3_4 - y_F_0_3_5 - y_F_0_4_0 - y_F_0_4_3
 - y_F_0_5_0 - y_F_0_5_3 + y_F_active_0 <= 1
Global_E_LB_0_0_4: E_0_0_4 - E_1_0_4 - y_CZ_0_0_4 + y_CZ_active_0
 - 2 y_F_0_0_0 - y_F_0_0_1 - y_F_0_0_2 - y_F_0_0_3 - 2 y_F_0_0_4 - y_F_0_0_5
 - y_F_0_1_0 - y_F_0_1_4 - y_F_0_2_0 - y_F_0_2_4 - y_F_0_3_0 - y_F_0_3_4
 - 2 y_F_0_4_0 - y_F_0_4_1 - y_F_0_4_2 - y_F_0_4_3 - 2 y_F_0_4_4 - y_F_0_4_5
 - y_F_0_5_0 - y_F_0_5_4 + y_F_active_0 <= 1
Global_E_LB_0_0_5: E_0_0_5 - E_1_0_5 - y_CZ_0_0_5 + y_CZ_active_0
 - 2 y_F_0_0_0 - y_F_0_0_1 - y_F_0_0_2 - y_F_0_0_3 - y_F_0_0_4 - 2 y_F_0_0_5
 - y_F_0_1_0 - y_F_0_1_5 - y_F_0_2_0 - y_F_0_2_5 - y_F_0_3_0 - y_F_0_3_5
 - y_F_0_4_0 - y_F_0_4_5 - 2 y_F_0_5_0 - y_F_0_5_1 - y_F_0_5_2 - y_F_0_5_3
 - y_F_0_5_4 - 2 y_F_0_5_5 + y_F_active_0 <= 1
Global_E_LB_0_1_2: E_0_1_2 - E_1_1_2 - y_CZ_0_1_2 + y_CZ_active_0 - y_F_0_0_1
 - y_F_0_0_2 - y_F_0_1_0 - 2 y_F_0_1_1 - 2 y_F_0_1_2 - y_F_0_1_3 - y_F_0_1_4
 - y_F_0_1_5 - y_F_0_2_0 - 2 y_F_0_2_1 - 2 y_F_0_2_2 - y_F_0_2_3 - y_F_0_2_4
 - y_F_0_2_5 - y_F_0_3_1 - y_F_0_3_2 - y_F_0_4_1 - y_F_0_4_2 - y_F_0_5_1
 - y_F_0_5_2 + y_F_active_0 <= 1
Global_E_LB_0_1_3: E_0_1_3 - E_1_1_3 - y_CZ_0_1_3 + y_CZ_active_0 - y_F_0_0_1
 - y_F_0_0_3 - y_F_0_1_0 - 2 y_F_0_1_1 - y_F_0_1_2 - 2 y_F_0_1_3 - y_F_0_1_4
 - y_F_0_1_5 - y_F_0_2_1 - y_F_0_2_3 - y_F_0_3_0 - 2 y_F_0_3_1 - y_F_0_3_2
 - 2 y_F_0_3_3 - y_F_0_3_4 - y_F_0_3_5 - y_F_0_4_1 - y_F_0_4_3 - y_F_0_5_1
 - y_F_0_5_3 + y_F_active_0 <= 1
Global_E_LB_0_1_4: E_0_1_4 - E_1_1_4 - y_CZ_0_1_4 + y_CZ_active_0 - y_F_0_0_1
 - y_F_0_0_4 - y_F_0_1_0 - 2 y_F_0_1_1 - y_F_0_1_2 - y_F_0_1_3 - 2 y_F_0_1_4
 - y_F_0_1_5 - y_F_0_2_1 - y_F_0_2_4 - y_F_0_3_1 - y_F_0_3_4 - y_F_0_4_0
 - 2 y_F_0_4_1 - y_F_0_4_2 - y_F_0_4_3 - 2 y_F_0_4_4 - y_F_0_4_5 - y_F_0_5_1
 - y_F_0_5_4 + y_F_active_0 <= 1
Global_E_LB_0_1_5: E_0_1_5 - E_1_1_5 - y_CZ_0_1_5 + y_CZ_active_0 - y_F_0_0_1
 - y_F_0_0_5 - y_F_0_1_0 - 2 y_F_0_1_1 - y_F_0_1_2 - y_F_0_1_3 - y_F_0_1_4
 - 2 y_F_0_1_5 - y_F_0_2_1 - y_F_0_2_5 - y_F_0_3_1 - y_F_0_3_5 - y_F_0_4_1
 - y_F_0_4_5 - y_F_0_5_0 - 2 y_F_0_5_1 - y_F_0_5_2 - y_F_0_5_3 - y_F_0_5_4
 - 2 y_F_0_5_5 + y_F_active_0 <= 1
Global_E_LB_0_2_3: E_0_2_3 - E_1_2_3 - y_CZ_0_2_3 + y_CZ_active_0 - y_F_0_0_2
 - y_F_0_0_3 - y_F_0_1_2 - y_F_0_1_3 - y_F_0_2_0 - y_F_0_2_1 - 2 y_F_0_2_2
 - 2 y_F_0_2_3 - y_F_0_2_4 - y_F_0_2_5 - y_F_0_3_0 - y_F_0_3_1 - 2 y_F_0_3_2
 - 2 y_F_0_3_3 - y_F_0_3_4 - y_F_0_3_5 - y_F_0_4_2 - y_F_0_4_3 - y_F_0_5_2
 - y_F_0_5_3 + y_F_active_0 <= 1
Global_E_LB_0_2_4: E_0_2_4 - E_1_2_4 - y_CZ_0_2_4 + y_CZ_active_0 - y_F_0_0_2
 - y_F_0_0_4 - y_F_0_1_2 - y_F_0_1_4 - y_F_0_2_0 - y_F_0_2_1 - 2 y_F_0_2_2
 - y_F_0_2_3 - 2 y_F_0_2_4 - y_F_0_2_5 - y_F_0_3_2 - y_F_0_3_4 - y_F_0_4_0
 - y_F_0_4_1 - 2 y_F_0_4_2 - y_F_0_4_3 - 2 y_F_0_4_4 - y_F_0_4_5 - y_F_0_5_2
 - y_F_0_5_4 + y_F_active_0 <= 1
Global_E_LB_0_2_5: E_0_2_5 - E_1_2_5 - y_CZ_0_2_5 + y_CZ_active_0 - y_F_0_0_2
 - y_F_0_0_5 - y_F_0_1_2 - y_F_0_1_5 - y_F_0_2_0 - y_F_0_2_1 - 2 y_F_0_2_2
 - y_F_0_2_3 - y_F_0_2_4 - 2 y_F_0_2_5 - y_F_0_3_2 - y_F_0_3_5 - y_F_0_4_2
 - y_F_0_4_5 - y_F_0_5_0 - y_F_0_5_1 - 2 y_F_0_5_2 - y_F_0_5_3 - y_F_0_5_4
 - 2 y_F_0_5_5 + y_F_active_0 <= 1
Global_E_LB_0_3_4: E_0_3_4 - E_1_3_4 - y_CZ_0_3_4 + y_CZ_active_0 - y_F_0_0_3
 - y_F_0_0_4 - y_F_0_1_3 - y_F_0_1_4 - y_F_0_2_3 - y_F_0_2_4 - y_F_0_3_0
 - y_F_0_3_1 - y_F_0_3_2 - 2 y_F_0_3_3 - 2 y_F_0_3_4 - y_F_0_3_5 - y_F_0_4_0
 - y_F_0_4_1 - y_F_0_4_2 - 2 y_F_0_4_3 - 2 y_F_0_4_4 - y_F_0_4_5 - y_F_0_5_3
 - y_F_0_5_4 + y_F_active_0 <= 1
Global_E_LB_0_3_5: E_0_3_5 - E_1_3_5 - y_CZ_0_3_5 + y_CZ_active_0 - y_F_0_0_3
 - y_F_0_0_5 - y_F_0_1_3 - y_F_0_1_5 - y_F_0_2_3 - y_F_0_2_5 - y_F_0_3_0
 - y_F_0_3_1 - y_F_0_3_2 - 2 y_F_0_3_3 - y_F_0_3_4 - 2 y_F_0_3_5 - y_F_0_4_3
 - y_F_0_4_5 - y_F_0_5_0 - y_F_0_5_1 - y_F_0_5_2 - 2 y_F_0_5_3 - y_F_0_5_4
 - 2 y_F_0_5_5 + y_F_active_0 <= 1
Global_E_LB_0_4_5: E_0_4_5 - E_1_4_5 - y_CZ_0_4_5 + y_CZ_active_0 - y_F_0_0_4
 - y_F_0_0_5 - y_F_0_1_4 - y_F_0_1_5 - y_F_0_2_4 - y_F_0_2_5 - y_F_0_3_4
 - y_F_0_3_5 - y_F_0_4_0 - y_F_0_4_1 - y_F_0_4_2 - y_F_0_4_3 - 2 y_F_0_4_4
 - 2 y_F_0_4_5 - y_F_0_5_0 - y_F_0_5_1 - y_F_0_5_2 - y_F_0_5_3 - 2 y_F_0_5_4
 - 2 y_F_0_5_5 + y_F_active_0 <= 1
Global_E_LB_1_0_1: E_1_0_1 - E_2_0_1 - y_CZ_1_0_1 + y_CZ_active_1
 - 2 y_F_1_0_0 - 2 y_F_1_0_1 - y_F_1_0_2 - y_F_1_0_3 - y_F_1_0_4 - y_F_1_0_5
 - 2 y_F_1_1_0 - 2 y_F_1_1_1 - y_F_1_1_2 - y_F_1_1_3 - y_F_1_1_4 - y_F_1_1_5
 - y_F_1_2_0 - y_F_1_2_1 - y_F_1_3_0 - y_F_1_3_1 - y_F_1_4_0 - y_F_1_4_1
 - y_F_1_5_0 - y_F_1_5_1 + y_F_active_1 <= 1
Global_E_LB_1_0_2: E_1_0_2 - E_2_0_2 - y_CZ_1_0_2 + y_CZ_active_1
 - 2 y_F_1_0_0 - y_F_1_0_1 - 2 y_F_1_0_2 - y_F_1_0_3 - y_F_1_0_4 - y_F_1_0_5
 - y_F_1_1_0 - y_F_1_1_2 - 2 y_F_1_2_0 - y_F_1_2_1 - 2 y_F_1_2_2 - y_F_1_2_3
 - y_F_1_2_4 - y_F_1_2_5 - y_F_1_3_0 - y_F_1_3_2 - y_F_1_4_0 - y_F_1_4_2
 - y_F_1_5_0 - y_F_1_5_2 + y_F_active_1 <= 1
Global_E_LB_1_0_3: E_1_0_3 - E_2_0_3 - y_CZ_1_0_3 + y_CZ_active_1
 - 2 y_F_1_0_0 - y_F_1_0_1 - y_F_1_0_2 - 2 y_F_1_0_3 - y_F_1_0_4 - y_F_1_0_5
 - y_F_1_1_0 - y_F_1_1_3 - y_F_1_2_0 - y_F_1_2_3 - 2 y_F_1_3_0 - y_F_1_3_1
 - y_F_1_3_2 - 2 y_F_1_3_3 - y_F_1_3_4 - y_F_1_3_5 - y_F_1_4_0 - y_F_1_4_3
 - y_F_1_5_0 - y_F_1_5_3 + y_F_active_1 <= 1
Global_E_LB_1_0_4: E_1_0_4 - E_2_0_4 - y_CZ_1_0_4 + y_CZ_active_1
 - 2 y_F_1_0_0 - y_F_1_0_1 - y_F_1_0_2 - y_F_1_0_3 - 2 y_F_1_0_4 - y_F_1_0_5
 - y_F_1_1_0 - y_F_1_1_4 - y_F_1_2_0 - y_F_1_2_4 - y_F_1_3_0 - y_F_1_3_4
 - 2 y_F_1_4_0 - y_F_1_4_1 - y_F_1_4_2 - y_F_1_4_3 - 2 y_F_1_4_4 - y_F_1_4_5
 - y_F_1_5_0 - y_F_1_5_4 + y_F_active_1 <= 1
Global_E_LB_1_0_5: E_1_0_5 - E_2_0_5 - y_CZ_1_0_5 + y_CZ_active_1
 - 2 y_F_1_0_0 - y_F_1_0_1 - y_F_1_0_2 - y_F_1_0_3 - y_F_1_0_4 - 2 y_F_1_0_5
 - y_F_1_1_0 - y_F_1_1_5 - y_F_1_2_0 - y_F_1_2_5 - y_F_1_3_0 - y_F_1_3_5
 - y_F_1_4_0 - y_F_1_4_5 - 2 y_F_1_5_0 - y_F_1_5_1 - y_F_1_5_2 - y_F_1_5_3
 - y_F_1_5_4 - 2 y_F_1_5_5 + y_F_active_1 <= 1
Global_E_LB_1_1_2: E_1_1_2 - E_2_1_2 - y_CZ_1_1_2 + y_CZ_active_1 - y_F_1_0_1
 - y_F_1_0_2 - y_F_1_1_0 - 2 y_F_1_1_1 - 2 y_F_1_1_2 - y_F_1_1_3 - y_F_1_1_4
 - y_F_1_1_5 - y_F_1_2_0 - 2 y_F_1_2_1 - 2 y_F_1_2_2 - y_F_1_2_3 - y_F_1_2_4
 - y_F_1_2_5 - y_F_1_3_1 - y_F_1_3_2 - y_F_1_4_1 - y_F_1_4_2 - y_F_1_5_1
 - y_F_1_5_2 + y_F_active_1 <= 1
Global_E_LB_1_1_3: E_1_1_3 - E_2_1_3 - y_CZ_1_1_3 + y_CZ_active_1 - y_F_1_0_1
 - y_F_1_0_3 - y_F_1_1_0 - 2 y_F_1_1_1 - y_F_1_1_2 - 2 y_F_1_1_3 - y_F_1_1_4
 - y_F_1_1_5 - y_F_1_2_1 - y_F_1_2_3 - y_F_1_3_0 - 2 y_F_1_3_1 - y_F_1_3_2
 - 2 y_F_1_3_3 - y_F_1_3_4 - y_F_1_3_5 - y_F_1_4_1 - y_F_1_4_3 - y_F_1_5_1
 - y_F_1_5_3 + y_F_active_1 <= 1
Global_E_LB_1_1_4: E_1_1_4 - E_2_1_4 - y_CZ_1_1_4 + y_CZ_active_1 - y_F_1_0_1
 - y_F_1_0_4 - y_F_1_1_0 - 2 y_F_1_1_1 - y_F_1_1_2 - y_F_1_1_3 - 2 y_F_1_1_4
 - y_F_1_1_5 - y_F_1_2_1 - y_F_1_2_4 - y_F_1_3_1 - y_F_1_3_4 - y_F_1_4_0
 - 2 y_F_1_4_1 - y_F_1_4_2 - y_F_1_4_3 - 2 y_F_1_4_4 - y_F_1_4_5 - y_F_1_5_1
 - y_F_1_5_4 + y_F_active_1 <= 1
Global_E_LB_1_1_5: E_1_1_5 - E_2_1_5 - y_CZ_1_1_5 + y_CZ_active_1 - y_F_1_0_1
 - y_F_1_0_5 - y_F_1_1_0 - 2 y_F_1_1_1 - y_F_1_1_2 - y_F_1_1_3 - y_F_1_1_4
 - 2 y_F_1_1_5 - y_F_1_2_1 - y_F_1_2_5 - y_F_1_3_1 - y_F_1_3_5 - y_F_1_4_1
 - y_F_1_4_5 - y_F_1_5_0 - 2 y_F_1_5_1 - y_F_1_5_2 - y_F_1_5_3 - y_F_1_5_4
 - 2 y_F_1_5_5 + y_F_active_1 <= 1
Global_E_LB_1_2_3: E_1_2_3 - E_2_2_3 - y_CZ_1_2_3 + y_CZ_active_1 - y_F_1_0_2
 - y_F_1_0_3 - y_F_1_1_2 - y_F_1_1_3 - y_F_1_2_0 - y_F_1_2_1 - 2 y_F_1_2_2
 - 2 y_F_1_2_3 - y_F_1_2_4 - y_F_1_2_5 - y_F_1_3_0 - y_F_1_3_1 - 2 y_F_1_3_2
 - 2 y_F_1_3_3 - y_F_1_3_4 - y_F_1_3_5 - y_F_1_4_2 - y_F_1_4_3 - y_F_1_5_2
 - y_F_1_5_3 + y_F_active_1 <= 1
Global_E_LB_1_2_4: E_1_2_4 - E_2_2_4 - y_CZ_1_2_4 + y_CZ_active_1 - y_F_1_0_2
 - y_F_1_0_4 - y_F_1_1_2 - y_F_1_1_4 - y_F_1_2_0 - y_F_1_2_1 - 2 y_F_1_2_2
 - y_F_1_2_3 - 2 y_F_1_2_4 - y_F_1_2_5 - y_F_1_3_2 - y_F_1_3_4 - y_F_1_4_0
 - y_F_1_4_1 - 2 y_F_1_4_2 - y_F_1_4_3 - 2 y_F_1_4_4 - y_F_1_4_5 - y_F_1_5_2
 - y_F_1_5_4 + y_F_active_1 <= 1
Global_E_LB_1_2_5: E_1_2_5 - E_2_2_5 - y_CZ_1_2_5 + y_CZ_active_1 - y_F_1_0_2
 - y_F_1_0_5 - y_F_1_1_2 - y_F_1_1_5 - y_F_1_2_0 - y_F_1_2_1 - 2 y_F_1_2_2
 - y_F_1_2_3 - y_F_1_2_4 - 2 y_F_1_2_5 - y_F_1_3_2 - y_F_1_3_5 - y_F_1_4_2
 - y_F_1_4_5 - y_F_1_5_0 - y_F_1_5_1 - 2 y_F_1_5_2 - y_F_1_5_3 - y_F_1_5_4
 - 2 y_F_1_5_5 + y_F_active_1 <= 1
Global_E_LB_1_3_4: E_1_3_4 - E_2_3_4 - y_CZ_1_3_4 + y_CZ_active_1 - y_F_1_0_3
 - y_F_1_0_4 - y_F_1_1_3 - y_F_1_1_4 - y_F_1_2_3 - y_F_1_2_4 - y_F_1_3_0
 - y_F_1_3_1 - y_F_1_3_2 - 2 y_F_1_3_3 - 2 y_F_1_3_4 - y_F_1_3_5 - y_F_1_4_0
 - y_F_1_4_1 - y_F_1_4_2 - 2 y_F_1_4_3 - 2 y_F_1_4_4 - y_F_1_4_5 - y_F_1_5_3
 - y_F_1_5_4 + y_F_active_1 <= 1
Global_E_LB_1_3_5: E_1_3_5 - E_2_3_5 - y_CZ_1_3_5 + y_CZ_active_1 - y_F_1_0_3
 - y_F_1_0_5 - y_F_1_1_3 - y_F_1_1_5 - y_F_1_2_3 - y_F_1_2_5 - y_F_1_3_0
 - y_F_1_3_1 - y_F_1_3_2 - 2 y_F_1_3_3 - y_F_1_3_4 - 2 y_F_1_3_5 - y_F_1_4_3
 - y_F_1_4_5 - y_F_1_5_0 - y_F_1_5_1 - y_F_1_5_2 - 2 y_F_1_5_3 - y_F_1_5_4
 - 2 y_F_1_5_5 + y_F_active_1 <= 1
Global_E_LB_1_4_5: E_1_4_5 - E_2_4_5 - y_CZ_1_4_5 + y_CZ_active_1 - y_F_1_0_4
 - y_F_1_0_5 - y_F_1_1_4 - y_F_1_1_5 - y_F_1_2_4 - y_F_1_2_5 - y_F_1_3_4
 - y_F_1_3_5 - y_F_1_4_0 - y_F_1_4_1 - y_F_1_4_2 - y_F_1_4_3 - 2 y_F_1_4_4
 - 2 y_F_1_4_5 - y_F_1_5_0 - y_F_1_5_1 - y_F_1_5_2 - y_F_1_5_3 - 2 y_F_1_5_4
 - 2 y_F_1_5_5 + y_F_active_1 <= 1
Global_E_LB_2_0_1: E_2_0_1 - E_3_0_1 - y_CZ_2_0_1 + y_CZ_active_2
 - 2 y_F_2_0_0 - 2 y_F_2_0_1 - y_F_2_0_2 - y_F_2_0_3 - y_F_2_0_4 - y_F_2_0_5
 - 2 y_F_2_1_0 - 2 y_F_2_1_1 - y_F_2_1_2 - y_F_2_1_3 - y_F_2_1_4 - y_F_2_1_5
 - y_F_2_2_0 - y_F_2_2_1 - y_F_2_3_0 - y_F_2_3_1 - y_F_2_4_0 - y_F_2_4_1
 - y_F_2_5_0 - y_F_2_5_1 + y_F_active_2 <= 1
Global_E_LB_2_0_2: E_2_0_2 - E_3_0_2 - y_CZ_2_0_2 + y_CZ_active_2
 - 2 y_F_2_0_0 - y_F_2_0_1 - 2 y_F_2_0_2 - y_F_2_0_3 - y_F_2_0_4 - y_F_2_0_5
 - y_F_2_1_0 - y_F_2_1_2 - 2 y_F_2_2_0 - y_F_2_2_1 - 2 y_F_2_2_2 - y_F_2_2_3
 - y_F_2_2_4 - y_F_2_2_5 - y_F_2_3_0 - y_F_2_3_2 - y_F_2_4_0 - y_F_2_4_2
 - y_F_2_5_0 - y_F_2_5_2 + y_F_active_2 <= 1
Global_E_LB_2_0_3: E_2_0_3 - E_3_0_3 - y_CZ_2_0_3 + y_CZ_active_2
 - 2 y_F_2_0_0 - y_F_2_0_1 - y_F_2_0_2 - 2 y_F_2_0_3 - y_F_2_0_4 - y_F_2_0_5
 - y_F_2_1_0 - y_F_2_1_3 - y_F_2_2_0 - y_F_2_2_3 - 2 y_F_2_3_0 - y_F_2_3_1
 - y_F_2_3_2 - 2 y_F_2_3_3 - y_F_2_3_4 - y_F_2_3_5 - y_F_2_4_0 - y_F_2_4_3
 - y_F_2_5_0 - y_F_2_5_3 + y_F_active_2 <= 1
Global_E_LB_2_0_4: E_2_0_4 - E_3_0_4 - y_CZ_2_0_4 + y_CZ_active_2
 - 2 y_F_2_0_0 - y_F_2_0_1 - y_F_2_0_2 - y_F_2_0_3 - 2 y_F_2_0_4 - y_F_2_0_5
 - y_F_2_1_0 - y_F_2_1_4 - y_F_2_2_0 - y_F_2_2_4 - y_F_2_3_0 - y_F_2_3_4
 - 2 y_F_2_4_0 - y_F_2_4_1 - y_F_2_4_2 - y_F_2_4_3 - 2 y_F_2_4_4 - y_F_2_4_5
 - y_F_2_5_0 - y_F_2_5_4 + y_F_active_2 <= 1
Global_E_LB_2_0_5: E_2_0_5 - E_3_0_5 - y_CZ_2_0_5 + y_CZ_active_2
 - 2 y_F_2_0_0 - y_F_2_0_1 - y_F_2_0_2 - y_F_2_0_3 - y_F_2_0_4 - 2 y_F_2_0_5
 - y_F_2_1_0 - y_F_2_1_5 - y_F_2_2_0 - y_F_2_2_5 - y_F_2_3_0 - y_F_2_3_5
 - y_F_2_4_0 - y_F_2_4_5 - 2 y_F_2_5_0 - y_F_2_5_1 - y_F_2_5_2 - y_F_2_5_3
 - y_F_2_5_4 - 2 y_F_2_5_5 + y_F_active_2 <= 1
Global_E_LB_2_1_2: E_2_1_2 - E_3_1_2 - y_CZ_2_1_2 + y_CZ_active_2 - y_F_2_0_1
 - y_F_2_0_2 - y_F_2_1_0 - 2 y_F_2_1_1 - 2 y_F_2_1_2 - y_F_2_1_3 - y_F_2_1_4
 - y_F_2_1_5 - y_F_2_2_0 - 2 y_F_2_2_1 - 2 y_F_2_2_2 - y_F_2_2_3 - y_F_2_2_4
 - y_F_2_2_5 - y_F_2_3_1 - y_F_2_3_2 - y_F_2_4_1 - y_F_2_4_2 - y_F_2_5_1
 - y_F_2_5_2 + y_F_active_2 <= 1
Global_E_LB_2_1_3: E_2_1_3 - E_3_1_3 - y_CZ_2_1_3 + y_CZ_active_2 - y_F_2_0_1
 - y_F_2_0_3 - y_F_2_1_0 - 2 y_F_2_1_1 - y_F_2_1_2 - 2 y_F_2_1_3 - y_F_2_1_4
 - y_F_2_1_5 - y_F_2_2_1 - y_F_2_2_3 - y_F_2_3_0 - 2 y_F_2_3_1 - y_F_2_3_2
 - 2 y_F_2_3_3 - y_F_2_3_4 - y_F_2_3_5 - y_F_2_4_1 - y_F_2_4_3 - y_F_2_5_1
 - y_F_2_5_3 + y_F_active_2 <= 1
Global_E_LB_2_1_4: E_2_1_4 - E_3_1_4 - y_CZ_2_1_4 + y_CZ_active_2 - y_F_2_0_1
 - y_F_2_0_4 - y_F_2_1_0 - 2 y_F_2_1_1 - y_F_2_1_2 - y_F_2_1_3 - 2 y_F_2_1_4
 - y_F_2_1_5 - y_F_2_2_1 - y_F_2_2_4 - y_F_2_3_1 - y_F_2_3_4 - y_F_2_4_0
 - 2 y_F_2_4_1 - y_F_2_4_2 - y_F_2_4_3 - 2 y_F_2_4_4 - y_F_2_4_5 - y_F_2_5_1
 - y_F_2_5_4 + y_F_active_2 <= 1
Global_E_LB_2_1_5: E_2_1_5 - E_3_1_5 - y_CZ_2_1_5 + y_CZ_active_2 - y_F_2_0_1
 - y_F_2_0_5 - y_F_2_1_0 - 2 y_F_2_1_1 - y_F_2_1_2 - y_F_2_1_3 - y_F_2_1_4
 - 2 y_F_2_1_5 - y_F_2_2_1 - y_F_2_2_5 - y_F_2_3_1 - y_F_2_3_5 - y_F_2_4_1
 - y_F_2_4_5 - y_F_2_5_0 - 2 y_F_2_5_1 - y_F_2_5_2 - y_F_2_5_3 - y_F_2_5_4
 - 2 y_F_2_5_5 + y_F_active_2 <= 1
Global_E_LB_2_2_3: E_2_2_3 - E_3_2_3 - y_CZ_2_2_3 + y_CZ_active_2 - y_F_2_0_2
 - y_F_2_0_3 - y_F_2_1_2 - y_F_2_1_3 - y_F_2_2_0 - y_F_2_2_1 - 2 y_F_2_2_2
 - 2 y_F_2_2_3 - y_F_2_2_4 - y_F_2_2_5 - y_F_2_3_0 - y_F_2_3_1 - 2 y_F_2_3_2
 - 2 y_F_2_3_3 - y_F_2_3_4 - y_F_2_3_5 - y_F_2_4_2 - y_F_2_4_3 - y_F_2_5_2
 - y_F_2_5_3 + y_F_active_2 <= 1
Global_E_LB_2_2_4: E_2_2_4 - E_3_2_4 - y_CZ_2_2_4 + y_CZ_active_2 - y_F_2_0_2
 - y_F_2_0_4 - y_F_2_1_2 - y_F_2_1_4 - y_F_2_2_0 - y_F_2_2_1 - 2 y_F_2_2_2
 - y_F_2_2_3 - 2 y_F_2_2_4 - y_F_2_2_5 - y_F_2_3_2 - y_F_2_3_4 - y_F_2_4_0
 - y_F_2_4_1 - 2 y_F_2_4_2 - y_F_2_4_3 - 2 y_F_2_4_4 - y_F_2_4_5 - y_F_2_5_2
 - y_F_2_5_4 + y_F_active_2 <= 1
Global_E_LB_2_2_5: E_2_2_5 - E_3_2_5 - y_CZ_2_2_5 + y_CZ_active_2 - y_F_2_0_2
 - y_F_2_0_5 - y_F_2_1_2 - y_F_2_1_5 - y_F_2_2_0 - y_F_2_2_1 - 2 y_F_2_2_2
 - y_F_2_2_3 - y_F_2_2_4 - 2 y_F_2_2_5 - y_F_2_3_2 - y_F_2_3_5 - y_F_2_4_2
 - y_F_2_4_5 - y_F_2_5_0 - y_F_2_5_1 - 2 y_F_2_5_2 - y_F_2_5_3 - y_F_2_5_4
 - 2 y_F_2_5_5 + y_F_active_2 <= 1
Global_E_LB_2_3_4: E_2_3_4 - E_3_3_4 - y_CZ_2_3_4 + y_CZ_active_2 - y_F_2_0_3
 - y_F_2_0_4 - y_F_2_1_3 - y_F_2_1_4 - y_F_2_2_3 - y_F_2_2_4 - y_F_2_3_0
 - y_F_2_3_1 - y_F_2_3_2 - 2 y_F_2_3_3 - 2 y_F_2_3_4 - y_F_2_3_5 - y_F_2_4_0
 - y_F_2_4_1 - y_F_2_4_2 - 2 y_F_2_4_3 - 2 y_F_2_4_4 - y_F_2_4_5 - y_F_2_5_3
 - y_F_2_5_4 + y_F_active_2 <= 1
Global_E_LB_2_3_5: E_2_3_5 - E_3_3_5 - y_CZ_2_3_5 + y_CZ_active_2 - y_F_2_0_3
 - y_F_2_0_5 - y_F_2_1_3 - y_F_2_1_5 - y_F_2_2_3 - y_F_2_2_5 - y_F_2_3_0
 - y_F_2_3_1 - y_F_2_3_2 - 2 y_F_2_3_3 - y_F_2_3_4 - 2 y_F_2_3_5 - y_F_2_4_3
 - y_F_2_4_5 - y_F_2_5_0 - y_F_2_5_1 - y_F_2_5_2 - 2 y_F_2_5_3 - y_F_2_5_4
 - 2 y_F_2_5_5 + y_F_active_2 <= 1
Global_E_LB_2_4_5: E_2_4_5 - E_3_4_5 - y_CZ_2_4_5 + y_CZ_active_2 - y_F_2_0_4
 - y_F_2_0_5 - y_F_2_1_4 - y_F_2_1_5 - y_F_2_2_4 - y_F_2_2_5 - y_F_2_3_4
 - y_F_2_3_5 - y_F_2_4_0 - y_F_2_4_1 - y_F_2_4_2 - y_F_2_4_3 - 2 y_F_2_4_4
 - 2 y_F_2_4_5 - y_F_2_5_0 - y_F_2_5_1 - y_F_2_5_2 - y_F_2_5_3 - 2 y_F_2_5_4
 - 2 y_F_2_5_5 + y_F_active_2 <= 1
Global_E_LB_3_0_1: E_3_0_1 - E_4_0_1 - y_CZ_3_0_1 + y_CZ_active_3
 - 2 y_F_3_0_0 - 2 y_F_3_0_1 - y_F_3_0_2 - y_F_3_0_3 - y_F_3_0_4 - y_F_3_0_5
 - 2 y_F_3_1_0 - 2 y_F_3_1_1 - y_F_3_1_2 - y_F_3_1_3 - y_F_3_1_4 - y_F_3_1_5
 - y_F_3_2_0 - y_F_3_2_1 - y_F_3_3_0 - y_F_3_3_1 - y_F_3_4_0 - y_F_3_4_1
 - y_F_3_5_0 - y_F_3_5_1 + y_F_active_3 <= 1
Global_E_LB_3_0_2: E_3_0_2 - E_4_0_2 - y_CZ_3_0_2 + y_CZ_active_3
 - 2 y_F_3_0_0 - y_F_3_0_1 - 2 y_F_3_0_2 - y_F_3_0_3 - y_F_3_0_4 - y_F_3_0_5
 - y_F_3_1_0 - y_F_3_1_2 - 2 y_F_3_2_0 - y_F_3_2_1 - 2 y_F_3_2_2 - y_F_3_2_3
 - y_F_3_2_4 - y_F_3_2_5 - y_F_3_3_0 - y_F_3_3_2 - y_F_3_4_0 - y_F_3_4_2
 - y_F_3_5_0 - y_F_3_5_2 + y_F_active_3 <= 1
Global_E_LB_3_0_3: E_3_0_3 - E_4_0_3 - y_CZ_3_0_3 + y_CZ_active_3
 - 2 y_F_3_0_0 - y_F_3_0_1 - y_F_3_0_2 - 2 y_F_3_0_3 - y_F_3_0_4 - y_F_3_0_5
 - y_F_3_1_0 - y_F_3_1_3 - y_F_3_2_0 - y_F_3_2_3 - 2 y_F_3_3_0 - y_F_3_3_1
 - y_F_3_3_2 - 2 y_F_3_3_3 - y_F_3_3_4 - y_F_3_3_5 - y_F_3_4_0 - y_F_3_4_3
 - y_F_3_5_0 - y_F_3_5_3 + y_F_active_3 <= 1
Global_E_LB_3_0_4: E_3_0_4 - E_4_0_4 - y_CZ_3_0_4 + y_CZ_active_3
 - 2 y_F_3_0_0 - y_F_3_0_1 - y_F_3_0_2 - y_F_3_0_3 - 2 y_F_3_0_4 - y_F_3_0_5
 - y_F_3_1_0 - y_F_3_1_4 - y_F_3_2_0 - y_F_3_2_4 - y_F_3_3_0 - y_F_3_3_4
 - 2 y_F_3_4_0 - y_F_3_4_1 - y_F_3_4_2 - y_F_3_4_3 - 2 y_F_3_4_4 - y_F_3_4_5
 - y_F_3_5_0 - y_F_3_5_4 + y_F_active_3 <= 1
Global_E_LB_3_0_5: E_3_0_5 - E_4_0_5 - y_CZ_3_0_5 + y_CZ_active_3
 - 2 y_F_3_0_0 - y_F_3_0_1 - y_F_3_0_2 - y_F_3_0_3 - y_F_3_0_4 - 2 y_F_3_0_5
 - y_F_3_1_0 - y_F_3_1_5 - y_F_3_2_0 - y_F_3_2_5 - y_F_3_3_0 - y_F_3_3_5
 - y_F_3_4_0 - y_F_3_4_5 - 2 y_F_3_5_0 - y_F_3_5_1 - y_F_3_5_2 - y_F_3_5_3
 - y_F_3_5_4 - 2 y_F_3_5_5 + y_F_active_3 <= 1
Global_E_LB_3_1_2: E_3_1_2 - E_4_1_2 - y_CZ_3_1_2 + y_CZ_active_3 - y_F_3_0_1
 - y_F_3_0_2 - y_F_3_1_0 - 2 y_F_3_1_1 - 2 y_F_3_1_2 - y_F_3_1_3 - y_F_3_1_4
 - y_F_3_1_5 - y_F_3_2_0 - 2 y_F_3_2_1 - 2 y_F_3_2_2 - y_F_3_2_3 - y_F_3_2_4
 - y_F_3_2_5 - y_F_3_3_1 - y_F_3_3_2 - y_F_3_4_1 - y_F_3_4_2 - y_F_3_5_1
 - y_F_3_5_2 + y_F_active_3 <= 1
Global_E_LB_3_1_3: E_3_1_3 - E_4_1_3 - y_CZ_3_1_3 + y_CZ_active_3 - y_F_3_0_1
 - y_F_3_0_3 - y_F_3_1_0 - 2 y_F_3_1_1 - y_F_3_1_2 - 2 y_F_3_1_3 - y_F_3_1_4
 - y_F_3_1_5 - y_F_3_2_1 - y_F_3_2_3 - y_F_3_3_0 - 2 y_F_3_3_1 - y_F_3_3_2
 - 2 y_F_3_3_3 - y_F_3_3_4 - y_F_3_3_5 - y_F_3_4_1 - y_F_3_4_3 - y_F_3_5_1
 - y_F_3_5_3 + y_F_active_3 <= 1
Global_E_LB_3_1_4: E_3_1_4 - E_4_1_4 - y_CZ_3_1_4 + y_CZ_active_3 - y_F_3_0_1
 - y_F_3_0_4 - y_F_3_1_0 - 2 y_F_3_1_1 - y_F_3_1_2 - y_F_3_1_3 - 2 y_F_3_1_4
 - y_F_3_1_5 - y_F_3_2_1 - y_F_3_2_4 - y_F_3_3_1 - y_F_3_3_4 - y_F_3_4_0
 - 2 y_F_3_4_1 - y_F_3_4_2 - y_F_3_4_3 - 2 y_F_3_4_4 - y_F_3_4_5 - y_F_3_5_1
 - y_F_3_5_4 + y_F_active_3 <= 1
Global_E_LB_3_1_5: E_3_1_5 - E_4_1_5 - y_CZ_3_1_5 + y_CZ_active_3 - y_F_3_0_1
 - y_F_3_0_5 - y_F_3_1_0 - 2 y_F_3_1_1 - y_F_3_1_2 - y_F_3_1_3 - y_F_3_1_4
 - 2 y_F_3_1_5 - y_F_3_2_1 - y_F_3_2_5 - y_F_3_3_1 - y_F_3_3_5 - y_F_3_4_1
 - y_F_3_4_5 - y_F_3_5_0 - 2 y_F_3_5_1 - y_F_3_5_2 - y_F_3_5_3 - y_F_3_5_4
 - 2 y_F_3_5_5 + y_F_active_3 <= 1
Global_E_LB_3_2_3: E_3_2_3 - E_4_2_3 - y_CZ_3_2_3 + y_CZ_active_3 - y_F_3_0_2
 - y_F_3_0_3 - y_F_3_1_2 - y_F_3_1_3 - y_F_3_2_0 - y_F_3_2_1 - 2 y_F_3_2_2
 - 2 y_F_3_2_3 - y_F_3_2_4 - y_F_3_2_5 - y_F_3_3_0 - y_F_3_3_1 - 2 y_F_3_3_2
 - 2 y_F_3_3_3 - y_F_3_3_4 - y_F_3_3_5 - y_F_3_4_2 - y_F_3_4_3 - y_F_3_5_2
 - y_F_3_5_3 + y_F_active_3 <= 1
Global_E_LB_3_2_4: E_3_2_4 - E_4_2_4 - y_CZ_3_2_4 + y_CZ_active_3 - y_F_3_0_2
 - y_F_3_0_4 - y_F_3_1_2 - y_F_3_1_4 - y_F_3_2_0 - y_F_3_2_1 - 2 y_F_3_2_2
 - y_F_3_2_3 - 2 y_F_3_2_4 - y_F_3_2_5 - y_F_3_3_2 - y_F_3_3_4 - y_F_3_4_0
 - y_F_3_4_1 - 2 y_F_3_4_2 - y_F_3_4_3 - 2 y_F_3_4_4 - y_F_3_4_5 - y_F_3_5_2
 - y_F_3_5_4 + y_F_active_3 <= 1
Global_E_LB_3_2_5: E_3_2_5 - E_4_2_5 - y_CZ_3_2_5 + y_CZ_active_3 - y_F_3_0_2
 - y_F_3_0_5 - y_F_3_1_2 - y_F_3_1_5 - y_F_3_2_0 - y_F_3_2_1 - 2 y_F_3_2_2
 - y_F_3_2_3 - y_F_3_2_4 - 2 y_F_3_2_5 - y_F_3_3_2 - y_F_3_3_5 - y_F_3_4_2
 - y_F_3_4_5 - y_F_3_5_0 - y_F_3_5_1 - 2 y_F_3_5_2 - y_F_3_5_3 - y_F_3_5_4
 - 2 y_F_3_5_5 + y_F_active_3 <= 1
Global_E_LB_3_3_4: E_3_3_4 - E_4_3_4 - y_CZ_3_3_4 + y_CZ_active_3 - y_F_3_0_3
 - y_F_3_0_4 - y_F_3_1_3 - y_F_3_1_4 - y_F_3_2_3 - y_F_3_2_4 - y_F_3_3_0
 - y_F_3_3_1 - y_F_3_3_2 - 2 y_F_3_3_3 - 2 y_F_3_3_4 - y_F_3_3_5 - y_F_3_4_0
 - y_F_3_4_1 - y_F_3_4_2 - 2 y_F_3_4_3 - 2 y_F_3_4_4 - y_F_3_4_5 - y_F_3_5_3
 - y_F_3_5_4 + y_F_active_3 <= 1
Global_E_LB_3_3_5: E_3_3_5 - E_4_3_5 - y_CZ_3_3_5 + y_CZ_active_3 - y_F_3_0_3
 - y_F_3_0_5 - y_F_3_1_3 - y_F_3_1_5 - y_F_3_2_3 - y_F_3_2_5 - y_F_3_3_0
 - y_F_3_3_1 - y_F_3_3_2 - 2 y_F_3_3_3 - y_F_3_3_4 - 2 y_F_3_3_5 - y_F_3_4_3
 - y_F_3_4_5 - y_F_3_5_0 - y_F_3_5_1 - y_F_3_5_2 - 2 y_F_3_5_3 - y_F_3_5_4
 - 2 y_F_3_5_5 + y_F_active_3 <= 1
Global_E_LB_3_4_5: E_3_4_5 - E_4_4_5 - y_CZ_3_4_5 + y_CZ_active_3 - y_F_3_0_4
 - y_F_3_0_5 - y_F_3_1_4 - y_F_3_1_5 - y_F_3_2_4 - y_F_3_2_5 - y_F_3_3_4
 - y_F_3_3_5 - y_F_3_4_0 - y_F_3_4_1 - y_F_3_4_2 - y_F_3_4_3 - 2 y_F_3_4_4
 - 2 y_F_3_4_5 - y_F_3_5_0 - y_F_3_5_1 - y_F_3_5_2 - y_F_3_5_3 - 2 y_F_3_5_4
 - 2 y_F_3_5_5 + y_F_active_3 <= 1
Global_E_UB_0_0_1: - E_0_0_1 + E_1_0_1 - y_CZ_0_0_1 + y_CZ_active_0
 - 2 y_F_0_0_0 - 2 y_F_0_0_1 - y_F_0_0_2 - y_F_0_0_3 - y_F_0_0_4 - y_F_0_0_5
 - 2 y_F_0_1_0 - 2 y_F_0_1_1 - y_F_0_1_2 - y_F_0_1_3 - y_F_0_1_4 - y_F_0_1_5
 - y_F_0_2_0 - y_F_0_2_1 - y_F_0_3_0 - y_F_0_3_1 - y_F_0_4_0 - y_F_0_4_1
 - y_F_0_5_0 - y_F_0_5_1 + y_F_active_0 <= 1
Global_E_UB_0_0_2: - E_0_0_2 + E_1_0_2 - y_CZ_0_0_2 + y_CZ_active_0
 - 2 y_F_0_0_0 - y_F_0_0_1 - 2 y_F_0_0_2 - y_F_0_0_3 - y_F_0_0_4 - y_F_0_0_5
 - y_F_0_1_0 - y_F_0_1_2 - 2 y_F_0_2_0 - y_F_0_2_1 - 2 y_F_0_2_2 - y_F_0_2_3
 - y_F_0_2_4 - y_F_0_2_5 - y_F_0_3_0 - y_F_0_3_2 - y_F_0_4_0 - y_F_0_4_2
 - y_F_0_5_0 - y_F_0_5_2 + y_F_active_0 <= 1
Global_E_UB_0_0_3: - E_0_0_3 + E_1_0_3 - y_CZ_0_0_3 + y_CZ_active_0
 - 2 y_F_0_0_0 - y_F_0_0_1 - y_F_0_0_2 - 2 y_F_0_0_3 - y_F_0_0_4 - y_F_0_0_5
 - y_F_0_1_0 - y_F_0_1_3 - y_F_0_2_0 - y_F_0_2_3 - 2 y_F_0_3_0 - y_F_0_3_1
 - y_F_0_3_2 - 2 y_F_0_3_3 - y_F_0_3_4 - y_F_0_3_5 - y_F_0_4_0 - y_F_0_4_3
 - y_F_0_5_0 - y_F_0_5_3 + y_F_active_0 <= 1
Global_E_UB_0_0_4: - E_0_0_4 + E_1_0_4 - y_CZ_0_0_4 + y_CZ_active_0
 - 2 y_F_0_0_0 - y_F_0_0_1 - y_F_0_0_2 - y_F_0_0_3 - 2 y_F_0_0_4 - y_F_0_0_5
 - y_F_0_1_0 - y_F_0_1_4 - y_F_0_2_0 - y_F_0_2_4 - y_F_0_3_0 - y_F_0_3_4
 - 2 y_F_0_4_0 - y_F_0_4_1 - y_F_0_4_2 - y_F_0_4_3 - 2 y_F_0_4_4 - y_F_0_4_5
 - y_F_0_5_0 - y_F_0_5_4 + y_F_active_0 <= 1
Global_E_UB_0_0_5: - E_0_0_5 + E_1_0_5 - y_CZ_0_0_5 + y_CZ_active_0
 - 2 y_F_0_0_0 - y_F_0_0_1 - y_F_0_0_2 - y_F_0_0_3 - y_F_0_0_4 - 2 y_F_0_0_5
 - y_F_0_1_0 - y_F_0_1_5 - y_F_0_2_0 - y_F_0_2_5 - y_F_0_3_0 - y_F_0_3_5
 - y_F_0_4_0 - y_F_0_4_5 - 2 y_F_0_5_0 - y_F_0_5_1 - y_F_0_5_2 - y_F_0_5_3
 - y_F_0_5_4 - 2 y_F_0_5_5 + y_F_active_0 <= 1
Global_E_UB_0_1_2: - E_0_1_2 + E_1_1_2 - y_CZ_0_1_2 + y_CZ_active_0
 - y_F_0_0_1 - y_F_0_0_2 - y_F_0_1_0 - 2 y_F_0_1_1 - 2 y_F_0_1_2 - y_F_0_1_3
 - y_F_0_1_4 - y_F_0_1_5 - y_F_0_2_0 - 2 y_F_0_2_1 - 2 y_F_0_2_2 - y_F_0_2_3
 - y_F_0_2_4 - y_F_0_2_5 - y_F_0_3_1 - y_F_0_3_2 - y_F_0_4_1 - y_F_0_4_2
 - y_F_0_5_1 - y_F_0_5_2 + y_F_active_0 <= 1
Global_E_UB_0_1_3: - E_0_1_3 + E_1_1_3 - y_CZ_0_1_3 + y_CZ_active_0
 - y_F_0_0_1 - y_F_0_0_3 - y_F_0_1_0 - 2 y_F_0_1_1 - y_F_0_1_2 - 2 y_F_0_1_3
 - y_F_0_1_4 - y_F_0_1_5 - y_F_0_2_1 - y_F_0_2_3 - y_F_0_3_0 - 2 y_F_0_3_1
 - y_F_0_3_2 - 2 y_F_0_3_3 - y_F_0_3_4 - y_F_0_3_5 - y_F_0_4_1 - y_F_0_4_3
 - y_F_0_5_1 - y_F_0_5_3 + y_F_active_0 <= 1
Global_E_UB_0_1_4: - E_0_1_4 + E_1_1_4 - y_CZ_0_1_4 + y_CZ_active_0
 - y_F_0_0_1 - y_F_0_0_4 - y_F_0_1_0 - 2 y_F_0_1_1 - y_F_0_1_2 - y_F_0_1_3
 - 2 y_F_0_1_4 - y_F_0_1_5 - y_F_0_2_1 - y_F_0_2_4 - y_F_0_3_1 - y_F_0_3_4
 - y_F_0_4_0 - 2 y_F_0_4_1 - y_F_0_4_2 - y_F_0_4_3 - 2 y_F_0_4_4 - y_F_0_4_5
 - y_F_0_5_1 - y_F_0_5_4 + y_F_active_0 <= 1
Global_E_UB_0_1_5: - E_0_1_5 + E_1_1_5 - y_CZ_0_1_5 + y_CZ_active_0
 - y_F_0_0_1 - y_F_0_0_5 - y_F_0_1_0 - 2 y_F_0_1_1 - y_F_0_1_2 - y_F_0_1_3
 - y_F_0_1_4 - 2 y_F_0_1_5 - y_F_0_2_1 - y_F_0_2_5 - y_F_0_3_1 - y_F_0_3_5
 - y_F_0_4_1 - y_F_0_4_5 - y_F_0_5_0 - 2 y_F_0_5_1 - y_F_0_5_2 - y_F_0_5_3
 - y_F_0_5_4 - 2 y_F_0_5_5 + y_F_active_0 <= 1
Global_E_UB_0_2_3: - E_0_2_3 + E_1_2_3 - y_CZ_0_2_3 + y_CZ_active_0
 - y_F_0_0_2 - y_F_0_0_3 - y_F_0_1_2 - y_F_0_1_3 - y_F_0_2_0 - y_F_0_2_1
 - 2 y_F_0_2_2 - 2 y_F_0_2_3 - y_F_0_2_4 - y_F_0_2_5 - y_F_0_3_0 - y_F_0_3_1
 - 2 y_F_0_3_2 - 2 y_F_0_3_3 - y_F_0_3_4 - y_F_0_3_5 - y_F_0_4_2 - y_F_0_4_3
 - y_F_0_5_2 - y_F_0_5_3 + y_F_active_0 <= 1
Global_E_UB_0_2_4: - E_0_2_4 + E_1_2_4 - y_CZ_0_2_4 + y_CZ_active_0
 - y_F_0_0_2 - y_F_0_0_4 - y_F_0_1_2 - y_F_0_1_4 - y_F_0_2_0 - y_F_0_2_1
 - 2 y_F_0_2_2 - y_F_0_2_3 - 2 y_F_0_2_4 - y_F_0_2_5 - y_F_0_3_2 - y_F_0_3_4
 - y_F_0_4_0 - y_F_0_4_1 - 2 y_F_0_4_2 - y_F_0_4_3 - 2 y_F_0_4_4 - y_F_0_4_5
 - y_F_0_5_2 - y_F_0_5_4 + y_F_active_0 <= 1
Global_E_UB_0_2_5: - E_0_2_5 + E_1_2_5 - y_CZ_0_2_5 + y_CZ_active_0
 - y_F_0_0_2 - y_F_0_0_5 - y_F_0_1_2 - y_F_0_1_5 - y_F_0_2_0 - y_F_0_2_1
 - 2 y_F_0_2_2 - y_F_0_2_3 - y_F_0_2_4 - 2 y_F_0_2_5 - y_F_0_3_2 - y_F_0_3_5
 - y_F_0_4_2 - y_F_0_4_5 - y_F_0_5_0 - y_F_0_5_1 - 2 y_F_0_5_2 - y_F_0_5_3
 - y_F_0_5_4 - 2 y_F_0_5_5 + y_F_active_0 <= 1
Global_E_UB_0_3_4: - E_0_3_4 + E_1_3_4 - y_CZ_0_3_4 + y_CZ_active_0
 - y_F_0_0_3 - y_F_0_0_4 - y_F_0_1_3 - y_F_0_1_4 - y_F_0_2_3 - y_F_0_2_4
 - y_F_0_3_0 - y_F_0_3_1 - y_F_0_3_2 - 2 y_F_0_3_3 - 2 y_F_0_3_4 - y_F_0_3_5
 - y_F_0_4_0 - y_F_0_4_1 - y_F_0_4_2 - 2 y_F_0_4_3 - 2 y_F_0_4_4 - y_F_0_4_5
 - y_F_0_5_3 - y_F_0_5_4 + y_F_active_0 <= 1
Global_E_UB_0_3_5: - E_0_3_5 + E_1_3_5 - y_CZ_0_3_5 + y_CZ_active_0
 - y_F_0_0_3 - y_F_0_0_5 - y_F_0_1_3 - y_F_0_1_5 - y_F_0_2_3 - y_F_0_2_5
 - y_F_0_3_0 - y_F_0_3_1 - y_F_0_3_2 - 2 y_F_0_3_3 - y_F_0_3_4 - 2 y_F_0_3_5
 - y_F_0_4_3 - y_F_0_4_5 - y_F_0_5_0 - y_F_0_5_1 - y_F_0_5_2 - 2 y_F_0_5_3
 - y_F_0_5_4 - 2 y_F_0_5_5 + y_F_active_0 <= 1
Global_E_UB_0_4_5: - E_0_4_5 + E_1_4_5 - y_CZ_0_4_5 + y_CZ_active_0
 - y_F_0_0_4 - y_F_0_0_5 - y_F_0_1_4 - y_F_0_1_5 - y_F_0_2_4 - y_F_0_2_5
 - y_F_0_3_4 - y_F_0_3_5 - y_F_0_4_0 - y_F_0_4_1 - y_F_0_4_2 - y_F_0_4_3
 - 2 y_F_0_4_4 - 2 y_F_0_4_5 - y_F_0_5_0 - y_F_0_5_1 - y_F_0_5_2 - y_F_0_5_3
 - 2 y_F_0_5_4 - 2 y_F_0_5_5 + y_F_active_0 <= 1
Global_E_UB_1_0_1: - E_1_0_1 + E_2_0_1 - y_CZ_1_0_1 + y_CZ_active_1
 - 2 y_F_1_0_0 - 2 y_F_1_0_1 - y_F_1_0_2 - y_F_1_0_3 - y_F_1_0_4 - y_F_1_0_5
 - 2 y_F_1_1_0 - 2 y_F_1_1_1 - y_F_1_1_2 - y_F_1_1_3 - y_F_1_1_4 - y_F_1_1_5
 - y_F_1_2_0 - y_F_1_2_1 - y_F_1_3_0 - y_F_1_3_1 - y_F_1_4_0 - y_F_1_4_1
 - y_F_1_5_0 - y_F_1_5_1 + y_F_active_1 <= 1
Global_E_UB_1_0_2: - E_1_0_2 + E_2_0_2 - y_CZ_1_0_2 + y_CZ_active_1
 - 2 y_F_1_0_0 - y_F_1_0_1 - 2 y_F_1_0_2 - y_F_1_0_3 - y_F_1_0_4 - y_F_1_0_5
 - y_F_1_1_0 - y_F_1_1_2 - 2 y_F_1_2_0 - y_F_1_2_1 - 2 y_F_1_2_2 - y_F_1_2_3
 - y_F_1_2_4 - y_F_1_2_5 - y_F_1_3_0 - y_F_1_3_2 - y_F_1_4_0 - y_F_1_4_2
 - y_F_1_5_0 - y_F_1_5_2 + y_F_active_1 <= 1
Global_E_UB_1_0_3: - E_1_0_3 + E_2_0_3 - y_CZ_1_0_3 + y_CZ_active_1
 - 2 y_F_1_0_0 - y_F_1_0_1 - y_F_1_0_2 - 2 y_F_1_0_3 - y_F_1_0_4 - y_F_1_0_5
 - y_F_1_1_0 - y_F_1_1_3 - y_F_1_2_0 - y_F_1_2_3 - 2 y_F_1_3_0 - y_F_1_3_1
 - y_F_1_3_2 - 2 y_F_1_3_3 - y_F_1_3_4 - y_F_1_3_5 - y_F_1_4_0 - y_F_1_4_3
 - y_F_1_5_0 - y_F_1_5_3 + y_F_active_1 <= 1
Global_E_UB_1_0_4: - E_1_0_4 + E_2_0_4 - y_CZ_1_0_4 + y_CZ_active_1
 - 2 y_F_1_0_0 - y_F_1_0_1 - y_F_1_0_2 - y_F_1_0_3 - 2 y_F_1_0_4 - y_F_1_0_5
 - y_F_1_1_0 - y_F_1_1_4 - y_F_1_2_0 - y_F_1_2_4 - y_F_1_3_0 - y_F_1_3_4
 - 2 y_F_1_4_0 - y_F_1_4_1 - y_F_1_4_2 - y_F_1_4_3 - 2 y_F_1_4_4 - y_F_1_4_5
 - y_F_1_5_0 - y_F_1_5_4 + y_F_active_1 <= 1
Global_E_UB_1_0_5: - E_1_0_5 + E_2_0_5 - y_CZ_1_0_5 + y_CZ_active_1
 - 2 y_F_1_0_0 - y_F_1_0_1 - y_F_1_0_2 - y_F_1_0_3 - y_F_1_0_4 - 2 y_F_1_0_5
 - y_F_1_1_0 - y_F_1_1_5 - y_F_1_2_0 - y_F_1_2_5 - y_F_1_3_0 - y_F_1_3_5
 - y_F_1_4_0 - y_F_1_4_5 - 2 y_F_1_5_0 - y_F_1_5_1 - y_F_1_5_2 - y_F_1_5_3
 - y_F_1_5_4 - 2 y_F_1_5_5 + y_F_active_1 <= 1
Global_E_UB_1_1_2: - E_1_1_2 + E_2_1_2 - y_CZ_1_1_2 + y_CZ_active_1
 - y_F_1_0_1 - y_F_1_0_2 - y_F_1_1_0 - 2 y_F_1_1_1 - 2 y_F_1_1_2 - y_F_1_1_3
 - y_F_1_1_4 - y_F_1_1_5 - y_F_1_2_0 - 2 y_F_1_2_1 - 2 y_F_1_2_2 - y_F_1_2_3
 - y_F_1_2_4 - y_F_1_2_5 - y_F_1_3_1 - y_F_1_3_2 - y_F_1_4_1 - y_F_1_4_2
 - y_F_1_5_1 - y_F_1_5_2 + y_F_active_1 <= 1
Global_E_UB_1_1_3: - E_1_1_3 + E_2_1_3 - y_CZ_1_1_3 + y_CZ_active_1
 - y_F_1_0_1 - y_F_1_0_3 - y_F_1_1_0 - 2 y_F_1_1_1 - y_F_1_1_2 - 2 y_F_1_1_3
 - y_F_1_1_4 - y_F_1_1_5 - y_F_1_2_1 - y_F_1_2_3 - y_F_1_3_0 - 2 y_F_1_3_1
 - y_F_1_3_2 - 2 y_F_1_3_3 - y_F_1_3_4 - y_F_1_3_5 - y_F_1_4_1 - y_F_1_4_3
 - y_F_1_5_1 - y_F_1_5_3 + y_F_active_1 <= 1
Global_E_UB_1_1_4: - E_1_1_4 + E_2_1_4 - y_CZ_1_1_4 + y_CZ_active_1
 - y_F_1_0_1 - y_F_1_0_4 - y_F_1_1_0 - 2 y_F_1_1_1 - y_F_1_1_2 - y_F_1_1_3
 - 2 y_F_1_1_4 - y_F_1_1_5 - y_F_1_2_1 - y_F_1_2_4 - y_F_1_3_1 - y_F_1_3_4
 - y_F_1_4_0 - 2 y_F_1_4_1 - y_F_1_4_2 - y_F_1_4_3 - 2 y_F_1_4_4 - y_F_1_4_5
 - y_F_1_5_1 - y_F_1_5_4 + y_F_active_1 <= 1
Global_E_UB_1_1_5: - E_1_1_5 + E_2_1_5 - y_CZ_1_1_5 + y_CZ_active_1
 - y_F_1_0_1 - y_F_1_0_5 - y_F_1_1_0 - 2 y_F_1_1_1 - y_F_1_1_2 - y_F_1_1_3
 - y_F_1_1_4 - 2 y_F_1_1_5 - y_F_1_2_1 - y_F_1_2_5 - y_F_1_3_1 - y_F_1_3_5
 - y_F_1_4_1 - y_F_1_4_5 - y_F_1_5_0 - 2 y_F_1_5_1 - y_F_1_5_2 - y_F_1_5_3
 - y_F_1_5_4 - 2 y_F_1_5_5 + y_F_active_1 <= 1
Global_E_UB_1_2_3: - E_1_2_3 + E_2_2_3 - y_CZ_1_2_3 + y_CZ_active_1
 - y_F_1_0_2 - y_F_1_0_3 - y_F_1_1_2 - y_F_1_1_3 - y_F_1_2_0 - y_F_1_2_1
 - 2 y_F_1_2_2 - 2 y_F_1_2_3 - y_F_1_2_4 - y_F_1_2_5 - y_F_1_3_0 - y_F_1_3_1
 - 2 y_F_1_3_2 - 2 y_F_1_3_3 - y_F_1_3_4 - y_F_1_3_5 - y_F_1_4_2 - y_F_1_4_3
 - y_F_1_5_2 - y_F_1_5_3 + y_F_active_1 <= 1
Global_E_UB_1_2_4: - E_1_2_4 + E_2_2_4 - y_CZ_1_2_4 + y_CZ_active_1
 - y_F_1_0_2 - y_F_1_0_4 - y_F_1_1_2 - y_F_1_1_4 - y_F_1_2_0 - y_F_1_2_1
 - 2 y_F_1_2_2 - y_F_1_2_3 - 2 y_F_1_2_4 - y_F_1_2_5 - y_F_1_3_2 - y_F_1_3_4
 - y_F_1_4_0 - y_F_1_4_1 - 2 y_F_1_4_2 - y_F_1_4_3 - 2 y_F_1_4_4 - y_F_1_4_5
 - y_F_1_5_2 - y_F_1_5_4 + y_F_active_1 <= 1
Global_E_UB_1_2_5: - E_1_2_5 + E_2_2_5 - y_CZ_1_2_5 + y_CZ_active_1
 - y_F_1_0_2 - y_F_1_0_5 - y_F_1_1_2 - y_F_1_1_5 - y_F_1_2_0 - y_F_1_2_1
 - 2 y_F_1_2_2 - y_F_1_2_3 - y_F_1_2_4 - 2 y_F_1_2_5 - y_F_1_3_2 - y_F_1_3_5
 - y_F_1_4_2 - y_F_1_4_5 - y_F_1_5_0 - y_F_1_5_1 - 2 y_F_1_5_2 - y_F_1_5_3
 - y_F_1_5_4 - 2 y_F_1_5_5 + y_F_active_1 <= 1
Global_E_UB_1_3_4: - E_1_3_4 + E_2_3_4 - y_CZ_1_3_4 + y_CZ_active_1
 - y_F_1_0_3 - y_F_1_0_4 - y_F_1_1_3 - y_F_1_1_4 - y_F_1_2_3 - y_F_1_2_4
 - y_F_1_3_0 - y_F_1_3_1 - y_F_1_3_2 - 2 y_F_1_3_3 - 2 y_F_1_3_4 - y_F_1_3_5
 - y_F_1_4_0 - y_F_1_4_1 - y_F_1_4_2 - 2 y_F_1_4_3 - 2 y_F_1_4_4 - y_F_1_4_5
 - y_F_1_5_3 - y_F_1_5_4 + y_F_active_1 <= 1
Global_E_UB_1_3_5: - E_1_3_5 + E_2_3_5 - y_CZ_1_3_5 + y_CZ_active_1
 - y_F_1_0_3 - y_F_1_0_5 - y_F_1_1_3 - y_F_1_1_5 - y_F_1_2_3 - y_F_1_2_5
 - y_F_1_3_0 - y_F_1_3_1 - y_F_1_3_2 - 2 y_F_1_3_3 - y_F_1_3_4 - 2 y_F_1_3_5
 - y_F_1_4_3 - y_F_1_4_5 - y_F_1_5_0 - y_F_1_5_1 - y_F_1_5_2 - 2 y_F_1_5_3
 - y_F_1_5_4 - 2 y_F_1_5_5 + y_F_active_1 <= 1
Global_E_UB_1_4_5: - E_1_4_5 + E_2_4_5 - y_CZ_1_4_5 + y_CZ_active_1
 - y_F_1_0_4 - y_F_1_0_5 - y_F_1_1_4 - y_F_1_1_5 - y_F_1_2_4 - y_F_1_2_5
 - y_F_1_3_4 - y_F_1_3_5 - y_F_1_4_0 - y_F_1_4_1 - y_F_1_4_2 - y_F_1_4_3
 - 2 y_F_1_4_4 - 2 y_F_1_4_5 - y_F_1_5_0 - y_F_1_5_1 - y_F_1_5_2 - y_F_1_5_3
 - 2 y_F_1_5_4 - 2 y_F_1_5_5 + y_F_active_1 <= 1
Global_E_UB_2_0_1: - E_2_0_1 + E_3_0_1 - y_CZ_2_0_1 + y_CZ_active_2
 - 2 y_F_2_0_0 - 2 y_F_2_0_1 - y_F_2_0_2 - y_F_2_0_3 - y_F_2_0_4 - y_F_2_0_5
 - 2 y_F_2_1_0 - 2 y_F_2_1_1 - y_F_2_1_2 - y_F_2_1_3 - y_F_2_1_4 - y_F_2_1_5
 - y_F_2_2_0 - y_F_2_2_1 - y_F_2_3_0 - y_F_2_3_1 - y_F_2_4_0 - y_F_2_4_1
 - y_F_2_5_0 - y_F_2_5_1 + y_F_active_2 <= 1
Global_E_UB_2_0_2: - E_2_0_2 + E_3_0_2 - y_CZ_2_0_2 + y_CZ_active_2
 - 2 y_F_2_0_0 - y_F_2_0_1 - 2 y_F_2_0_2 - y_F_2_0_3 - y_F_2_0_4 - y_F_2_0_5
 - y_F_2_1_0 - y_F_2_1_2 - 2 y_F_2_2_0 - y_F_2_2_1 - 2 y_F_2_2_2 - y_F_2_2_3
 - y_F_2_2_4 - y_F_2_2_5 - y_F_2_3_0 - y_F_2_3_2 - y_F_2_4_0 - y_F_2_4_2
 - y_F_2_5_0 - y_F_2_5_2 + y_F_active_2 <= 1
Global_E_UB_2_0_3: - E_2_0_3 + E_3_0_3 - y_CZ_2_0_3 + y_CZ_active_2
 - 2 y_F_2_0_0 - y_F_2_0_1 - y_F_2_0_2 - 2 y_F_2_0_3 - y_F_2_0_4 - y_F_2_0_5
 - y_F_2_1_0 - y_F_2_1_3 - y_F_2_2_0 - y_F_2_2_3 - 2 y_F_2_3_0 - y_F_2_3_1
 - y_F_2_3_2 - 2 y_F_2_3_3 - y_F_2_3_4 - y_F_2_3_5 - y_F_2_4_0 - y_F_2_4_3
 - y_F_2_5_0 - y_F_2_5_3 + y_F_active_2 <= 1
Global_E_UB_2_0_4: - E_2_0_4 + E_3_0_4 - y_CZ_2_0_4 + y_CZ_active_2
 - 2 y_F_2_0_0 - y_F_2_0_1 - y_F_2_0_2 - y_F_2_0_3 - 2 y_F_2_0_4 - y_F_2_0_5
 - y_F_2_1_0 - y_F_2_1_4 - y_F_2_2_0 - y_F_2_2_4 - y_F_2_3_0 - y_F_2_3_4
 - 2 y_F_2_4_0 - y_F_2_4_1 - y_F_2_4_2 - y_F_2_4_3 - 2 y_F_2_4_4 - y_F_2_4_5
 - y_F_2_5_0 - y_F_2_5_4 + y_F_active_2 <= 1
Global_E_UB_2_0_5: - E_2_0_5 + E_3_0_5 - y_CZ_2_0_5 + y_CZ_active_2
 - 2 y_F_2_0_0 - y_F_2_0_1 - y_F_2_0_2 - y_F_2_0_3 - y_F_2_0_4 - 2 y_F_2_0_5
 - y_F_2_1_0 - y_F_2_1_5 - y_F_2_2_0 - y_F_2_2_5 - y_F_2_3_0 - y_F_2_3_5
 - y_F_2_4_0 - y_F_2_4_5 - 2 y_F_2_5_0 - y_F_2_5_1 - y_F_2_5_2 - y_F_2_5_3
 - y_F_2_5_4 - 2 y_F_2_5_5 + y_F_active_2 <= 1
Global_E_UB_2_1_2: - E_2_1_2 + E_3_1_2 - y_CZ_2_1_2 + y_CZ_active_2
 - y_F_2_0_1 - y_F_2_0_2 - y_F_2_1_0 - 2 y_F_2_1_1 - 2 y_F_2_1_2 - y_F_2_1_3
 - y_F_2_1_4 - y_F_2_1_5 - y_F_2_2_0 - 2 y_F_2_2_1 - 2 y_F_2_2_2 - y_F_2_2_3
 - y_F_2_2_4 - y_F_2_2_5 - y_F_2_3_1 - y_F_2_3_2 - y_F_2_4_1 - y_F_2_4_2
 - y_F_2_5_1 - y_F_2_5_2 + y_F_active_2 <= 1
Global_E_UB_2_1_3: - E_2_1_3 + E_3_1_3 - y_CZ_2_1_3 + y_CZ_active_2
 - y_F_2_0_1 - y_F_2_0_3 - y_F_2_1_0 - 2 y_F_2_1_1 - y_F_2_1_2 - 2 y_F_2_1_3
 - y_F_2_1_4 - y_F_2_1_5 - y_F_2_2_1 - y_F_2_2_3 - y_F_2_3_0 - 2 y_F_2_3_1
 - y_F_2_3_2 - 2 y_F_2_3_3 - y_F_2_3_4 - y_F_2_3_5 - y_F_2_4_1 - y_F_2_4_3
 - y_F_2_5_1 - y_F_2_5_3 + y_F_active_2 <= 1
Global_E_UB_2_1_4: - E_2_1_4 + E_3_1_4 - y_CZ_2_1_4 + y_CZ_active_2
 - y_F_2_0_1 - y_F_2_0_4 - y_F_2_1_0 - 2 y_F_2_1_1 - y_F_2_1_2 - y_F_2_1_3
 - 2 y_F_2_1_4 - y_F_2_1_5 - y_F_2_2_1 - y_F_2_2_4 - y_F_2_3_1 - y_F_2_3_4
 - y_F_2_4_0 - 2 y_F_2_4_1 - y_F_2_4_2 - y_F_2_4_3 - 2 y_F_2_4_4 - y_F_2_4_5
 - y_F_2_5_1 - y_F_2_5_4 + y_F_active_2 <= 1
Global_E_UB_2_1_5: - E_2_1_5 + E_3_1_5 - y_CZ_2_1_5 + y_CZ_active_2
 - y_F_2_0_1 - y_F_2_0_5 - y_F_2_1_0 - 2 y_F_2_1_1 - y_F_2_1_2 - y_F_2_1_3
 - y_F_2_1_4 - 2 y_F_2_1_5 - y_F_2_2_1 - y_F_2_2_5 - y_F_2_3_1 - y_F_2_3_5
 - y_F_2_4_1 - y_F_2_4_5 - y_F_2_5_0 - 2 y_F_2_5_1 - y_F_2_5_2 - y_F_2_5_3
 - y_F_2_5_4 - 2 y_F_2_5_5 + y_F_active_2 <= 1
Global_E_UB_2_2_3: - E_2_2_3 + E_3_2_3 - y_CZ_2_2_3 + y_CZ_active_2
 - y_F_2_0_2 - y_F_2_0_3 - y_F_2_1_2 - y_F_2_1_3 - y_F_2_2_0 - y_F_2_2_1
 - 2 y_F_2_2_2 - 2 y_F_2_2_3 - y_F_2_2_4 - y_F_2_2_5 - y_F_2_3_0 - y_F_2_3_1
 - 2 y_F_2_3_2 - 2 y_F_2_3_3 - y_F_2_3_4 - y_F_2_3_5 - y_F_2_4_2 - y_F_2_4_3
 - y_F_2_5_2 - y_F_2_5_3 + y_F_active_2 <= 1
Global_E_UB_2_2_4: - E_2_2_4 + E_3_2_4 - y_CZ_2_2_4 + y_CZ_active_2
 - y_F_2_0_2 - y_F_2_0_4 - y_F_2_1_2 - y_F_2_1_4 - y_F_2_2_0 - y_F_2_2_1
 - 2 y_F_2_2_2 - y_F_2_2_3 - 2 y_F_2_2_4 - y_F_2_2_5 - y_F_2_3_2 - y_F_2_3_4
 - y_F_2_4_0 - y_F_2_4_1 - 2 y_F_2_4_2 - y_F_2_4_3 - 2 y_F_2_4_4 - y_F_2_4_5
 - y_F_2_5_2 - y_F_2_5_4 + y_F_active_2 <= 1
Global_E_UB_2_2_5: - E_2_2_5 + E_3_2_5 - y_CZ_2_2_5 + y_CZ_active_2
 - y_F_2_0_2 - y_F_2_0_5 - y_F_2_1_2 - y_F_2_1_5 - y_F_2_2_0 - y_F_2_2_1
 - 2 y_F_2_2_2 - y_F_2_2_3 - y_F_2_2_4 - 2 y_F_2_2_5 - y_F_2_3_2 - y_F_2_3_5
 - y_F_2_4_2 - y_F_2_4_5 - y_F_2_5_0 - y_F_2_5_1 - 2 y_F_2_5_2 - y_F_2_5_3
 - y_F_2_5_4 - 2 y_F_2_5_5 + y_F_active_2 <= 1
Global_E_UB_2_3_4: - E_2_3_4 + E_3_3_4 - y_CZ_2_3_4 + y_CZ_active_2
 - y_F_2_0_3 - y_F_2_0_4 - y_F_2_1_3 - y_F_2_1_4 - y_F_2_2_3 - y_F_2_2_4
 - y_F_2_3_0 - y_F_2_3_1 - y_F_2_3_2 - 2 y_F_2_3_3 - 2 y_F_2_3_4 - y_F_2_3_5
 - y_F_2_4_0 - y_F_2_4_1 - y_F_2_4_2 - 2 y_F_2_4_3 - 2 y_F_2_4_4 - y_F_2_4_5
 - y_F_2_5_3 - y_F_2_5_4 + y_F_active_2 <= 1
Global_E_UB_2_3_5: - E_2_3_5 + E_3_3_5 - y_CZ_2_3_5 + y_CZ_active_2
 - y_F_2_0_3 - y_F_2_0_5 - y_F_2_1_3 - y_F_2_1_5 - y_F_2_2_3 - y_F_2_2_5
 - y_F_2_3_0 - y_F_2_3_1 - y_F_2_3_2 - 2 y_F_2_3_3 - y_F_2_3_4 - 2 y_F_2_3_5
 - y_F_2_4_3 - y_F_2_4_5 - y_F_2_5_0 - y_F_2_5_1 - y_F_2_5_2 - 2 y_F_2_5_3
 - y_F_2_5_4 - 2 y_F_2_5_5 + y_F_active_2 <= 1
Global_E_UB_2_4_5: - E_2_4_5 + E_3_4_5 - y_CZ_2_4_5 + y_CZ_active_2
 - y_F_2_0_4 - y_F_2_0_5 - y_F_2_1_4 - y_F_2_1_5 - y_F_2_2_4 - y_F_2_2_5
 - y_F_2_3_4 - y_F_2_3_5 - y_F_2_4_0 - y_F_2_4_1 - y_F_2_4_2 - y_F_2_4_3
 - 2 y_F_2_4_4 - 2 y_F_2_4_5 - y_F_2_5_0 - y_F_2_5_1 - y_F_2_5_2 - y_F_2_5_3
 - 2 y_F_2_5_4 - 2 y_F_2_5_5 + y_F_active_2 <= 1
Global_E_UB_3_0_1: - E_3_0_1 + E_4_0_1 - y_CZ_3_0_1 + y_CZ_active_3
 - 2 y_F_3_0_0 - 2 y_F_3_0_1 - y_F_3_0_2 - y_F_3_0_3 - y_F_3_0_4 - y_F_3_0_5
 - 2 y_F_3_1_0 - 2 y_F_3_1_1 - y_F_3_1_2 - y_F_3_1_3 - y_F_3_1_4 - y_F_3_1_5
 - y_F_3_2_0 - y_F_3_2_1 - y_F_3_3_0 - y_F_3_3_1 - y_F_3_4_0 - y_F_3_4_1
 - y_F_3_5_0 - y_F_3_5_1 + y_F_active_3 <= 1
Global_E_UB_3_0_2: - E_3_0_2 + E_4_0_2 - y_CZ_3_0_2 + y_CZ_active_3
 - 2 y_F_3_0_0 - y_F_3_0_1 - 2 y_F_3_0_2 - y_F_3_0_3 - y_F_3_0_4 - y_F_3_0_5
 - y_F_3_1_0 - y_F_3_1_2 - 2 y_F_3_2_0 - y_F_3_2_1 - 2 y_F_3_2_2 - y_F_3_2_3
 - y_F_3_2_4 - y_F_3_2_5 - y_F_3_3_0 - y_F_3_3_2 - y_F_3_4_0 - y_F_3_4_2
 - y_F_3_5_0 - y_F_3_5_2 + y_F_active_3 <= 1
Global_E_UB_3_0_3: - E_3_0_3 + E_4_0_3 - y_CZ_3_0_3 + y_CZ_active_3
 - 2 y_F_3_0_0 - y_F_3_0_1 - y_F_3_0_2 - 2 y_F_3_0_3 - y_F_3_0_4 - y_F_3_0_5
 - y_F_3_1_0 - y_F_3_1_3 - y_F_3_2_0 - y_F_3_2_3 - 2 y_F_3_3_0 - y_F_3_3_1
 - y_F_3_3_2 - 2 y_F_3_3_3 - y_F_3_3_4 - y_F_3_3_5 - y_F_3_4_0 - y_F_3_4_3
 - y_F_3_5_0 - y_F_3_5_3 + y_F_active_3 <= 1
Global_E_UB_3_0_4: - E_3_0_4 + E_4_0_4 - y_CZ_3_0_4 + y_CZ_active_3
 - 2 y_F_3_0_0 - y_F_3_0_1 - y_F_3_0_2 - y_F_3_0_3 - 2 y_F_3_0_4 - y_F_3_0_5
 - y_F_3_1_0 - y_F_3_1_4 - y_F_3_2_0 - y_F_3_2_4 - y_F_3_3_0 - y_F_3_3_4
 - 2 y_F_3_4_0 - y_F_3_4_1 - y_F_3_4_2 - y_F_3_4_3 - 2 y_F_3_4_4 - y_F_3_4_5
 - y_F_3_5_0 - y_F_3_5_4 + y_F_active_3 <= 1
Global_E_UB_3_0_5: - E_3_0_5 + E_4_0_5 - y_CZ_3_0_5 + y_CZ_active_3
 - 2 y_F_3_0_0 - y_F_3_0_1 - y_F_3_0_2 - y_F_3_0_3 - y_F_3_0_4 - 2 y_F_3_0_5
 - y_F_3_1_0 - y_F_3_1_5 - y_F_3_2_0 - y_F_3_2_5 - y_F_3_3_0 - y_F_3_3_5
 - y_F_3_4_0 - y_F_3_4_5 - 2 y_F_3_5_0 - y_F_3_5_1 - y_F_3_5_2 - y_F_3_5_3
 - y_F_3_5_4 - 2 y_F_3_5_5 + y_F_active_3 <= 1
Global_E_UB_3_1_2: - E_3_1_2 + E_4_1_2 - y_CZ_3_1_2 + y_CZ_active_3
 - y_F_3_0_1 - y_F_3_0_2 - y_F_3_1_0 - 2 y_F_3_1_1 - 2 y_F_3_1_2 - y_F_3_1_3
 - y_F_3_1_4 - y_F_3_1_5 - y_F_3_2_0 - 2 y_F_3_2_1 - 2 y_F_3_2_2 - y_F_3_2_3
 - y_F_3_2_4 - y_F_3_2_5 - y_F_3_3_1 - y_F_3_3_2 - y_F_3_4_1 - y_F_3_4_2
 - y_F_3_5_1 - y_F_3_5_2 + y_F_active_3 <= 1
Global_E_UB_3_1_3: - E_3_1_3 + E_4_1_3 - y_CZ_3_1_3 + y_CZ_active_3
 - y_F_3_0_1 - y_F_3_0_3 - y_F_3_1_0 - 2 y_F_3_1_1 - y_F_3_1_2 - 2 y_F_3_1_3
 - y_F_3_1_4 - y_F_3_1_5 - y_F_3_2_1 - y_F_3_2_3 - y_F_3_3_0 - 2 y_F_3_3_1
 - y_F_3_3_2 - 2 y_F_3_3_3 - y_F_3_3_4 - y_F_3_3_5 - y_F_3_4_1 - y_F_3_4_3
 - y_F_3_5_1 - y_F_3_5_3 + y_F_active_3 <= 1
Global_E_UB_3_1_4: - E_3_1_4 + E_4_1_4 - y_CZ_3_1_4 + y_CZ_active_3
 - y_F_3_0_1 - y_F_3_0_4 - y_F_3_1_0 - 2 y_F_3_1_1 - y_F_3_1_2 - y_F_3_1_3
 - 2 y_F_3_1_4 - y_F_3_1_5 - y_F_3_2_1 - y_F_3_2_4 - y_F_3_3_1 - y_F_3_3_4
 - y_F_3_4_0 - 2 y_F_3_4_1 - y_F_3_4_2 - y_F_3_4_3 - 2 y_F_3_4_4 - y_F_3_4_5
 - y_F_3_5_1 - y_F_3_5_4 + y_F_active_3 <= 1
Global_E_UB_3_1_5: - E_3_1_5 + E_4_1_5 - y_CZ_3_1_5 + y_CZ_active_3
 - y_F_3_0_1 - y_F_3_0_5 - y_F_3_1_0 - 2 y_F_3_1_1 - y_F_3_1_2 - y_F_3_1_3
 - y_F_3_1_4 - 2 y_F_3_1_5 - y_F_3_2_1 - y_F_3_2_5 - y_F_3_3_1 - y_F_3_3_5
 - y_F_3_4_1 - y_F_3_4_5 - y_F_3_5_0 - 2 y_F_3_5_1 - y_F_3_5_2 - y_F_3_5_3
 - y_F_3_5_4 - 2 y_F_3_5_5 + y_F_active_3 <= 1
Global_E_UB_3_2_3: - E_3_2_3 + E_4_2_3 - y_CZ_3_2_3 + y_CZ_active_3
 - y_F_3_0_2 - y_F_3_0_3 - y_F_3_1_2 - y_F_3_1_3 - y_F_3_2_0 - y_F_3_2_1
 - 2 y_F_3_2_2 - 2 y_F_3_2_3 - y_F_3_2_4 - y_F_3_2_5 - y_F_3_3_0 - y_F_3_3_1
 - 2 y_F_3_3_2 - 2 y_F_3_3_3 - y_F_3_3_4 - y_F_3_3_5 - y_F_3_4_2 - y_F_3_4_3
 - y_F_3_5_2 - y_F_3_5_3 + y_F_active_3 <= 1
Global_E_UB_3_2_4: - E_3_2_4 + E_4_2_4 - y_CZ_3_2_4 + y_CZ_active_3
 - y_F_3_0_2 - y_F_3_0_4 - y_F_3_1_2 - y_F_3_1_4 - y_F_3_2_0 - y_F_3_2_1
 - 2 y_F_3_2_2 - y_F_3_2_3 - 2 y_F_3_2_4 - y_F_3_2_5 - y_F_3_3_2 - y_F_3_3_4
 - y_F_3_4_0 - y_F_3_4_1 - 2 y_F_3_4_2 - y_F_3_4_3 - 2 y_F_3_4_4 - y_F_3_4_5
 - y_F_3_5_2 - y_F_3_5_4 + y_F_active_3 <= 1
Global_E_UB_3_2_5: - E_3_2_5 + E_4_2_5 - y_CZ_3_2_5 + y_CZ_active_3
 - y_F_3_0_2 - y_F_3_0_5 - y_F_3_1_2 - y_F_3_1_5 - y_F_3_2_0 - y_F_3_2_1
 - 2 y_F_3_2_2 - y_F_3_2_3 - y_F_3_2_4 - 2 y_F_3_2_5 - y_F_3_3_2 - y_F_3_3_5
 - y_F_3_4_2 - y_F_3_4_5 - y_F_3_5_0 - y_F_3_5_1 - 2 y_F_3_5_2 - y_F_3_5_3
 - y_F_3_5_4 - 2 y_F_3_5_5 + y_F_active_3 <= 1
Global_E_UB_3_3_4: - E_3_3_4 + E_4_3_4 - y_CZ_3_3_4 + y_CZ_active_3
 - y_F_3_0_3 - y_F_3_0_4 - y_F_3_1_3 - y_F_3_1_4 - y_F_3_2_3 - y_F_3_2_4
 - y_F_3_3_0 - y_F_3_3_1 - y_F_3_3_2 - 2 y_F_3_3_3 - 2 y_F_3_3_4 - y_F_3_3_5
 - y_F_3_4_0 - y_F_3_4_1 - y_F_3_4_2 - 2 y_F_3_4_3 - 2 y_F_3_4_4 - y_F_3_4_5
 - y_F_3_5_3 - y_F_3_5_4 + y_F_active_3 <= 1
Global_E_UB_3_3_5: - E_3_3_5 + E_4_3_5 - y_CZ_3_3_5 + y_CZ_active_3
 - y_F_3_0_3 - y_F_3_0_5 - y_F_3_1_3 - y_F_3_1_5 - y_F_3_2_3 - y_F_3_2_5
 - y_F_3_3_0 - y_F_3_3_1 - y_F_3_3_2 - 2 y_F_3_3_3 - y_F_3_3_4 - 2 y_F_3_3_5
 - y_F_3_4_3 - y_F_3_4_5 - y_F_3_5_0 - y_F_3_5_1 - y_F_3_5_2 - 2 y_F_3_5_3
 - y_F_3_5_4 - 2 y_F_3_5_5 + y_F_active_3 <= 1
Global_E_UB_3_4_5: - E_3_4_5 + E_4_4_5 - y_CZ_3_4_5 + y_CZ_active_3
 - y_F_3_0_4 - y_F_3_0_5 - y_F_3_1_4 - y_F_3_1_5 - y_F_3_2_4 - y_F_3_2_5
 - y_F_3_3_4 - y_F_3_3_5 - y_F_3_4_0 - y_F_3_4_1 - y_F_3_4_2 - y_F_3_4_3
 - 2 y_F_3_4_4 - 2 y_F_3_4_5 - y_F_3_5_0 - y_F_3_5_1 - y_F_3_5_2 - y_F_3_5_3
 - 2 y_F_3_5_4 - 2 y_F_3_5_5 + y_F_active_3 <= 1
Init_E_0_0: E_0_0_0 = 0
Init_E_0_1: E_0_0_1 = 1
Init_E_0_2: E_0_0_2 = 0
Init_E_0_3: E_0_0_3 = 0
Init_E_0_4: E_0_0_4 = 0
Init_E_0_5: E_0_0_5 = 0
Init_E_1_0: E_0_1_0 = 0
Init_E_1_1: E_0_1_1 = 0
Init_E_1_2: E_0_1_2 = 0
Init_E_1_3: E_0_1_3 = 0
Init_E_1_4: E_0_1_4 = 0
Init_E_1_5: E_0_1_5 = 0
Init_E_2_0: E_0_2_0 = 0
Init_E_2_1: E_0_2_1 = 0
Init_E_2_2: E_0_2_2 = 0
Init_E_2_3: E_0_2_3 = 1
Init_E_2_4: E_0_2_4 = 0
Init_E_2_5: E_0_2_5 = 0
Init_E_3_0: E_0_3_0 = 0
Init_E_3_1: E_0_3_1 = 0
Init_E_3_2: E_0_3_2 = 0
Init_E_3_3: E_0_3_3 = 0
Init_E_3_4: E_0_3_4 = 0
Init_E_3_5: E_0_3_5 = 0
Init_E_4_0: E_0_4_0 = 0
Init_E_4_1: E_0_4_1 = 0
Init_E_4_2: E_0_4_2 = 0
Init_E_4_3: E_0_4_3 = 0
Init_E_4_4: E_0_4_4 = 0
Init_E_4_5: E_0_4_5 = 1
Init_E_5_0: E_0_5_0 = 0
Init_E_5_1: E_0_5_1 = 0
Init_E_5_2: E_0_5_2 = 0
Init_E_5_3: E_0_5_3 = 0
Init_E_5_4: E_0_5_4 = 0
Init_E_5_5: E_0_5_5 = 0
Init_L_0_0: L_0_0_0 = 1
Init_L_0_1: L_0_0_1 = 1
Init_L_0_2: L_0_0_2 = 0
Init_L_0_3: L_0_0_3 = 0
Init_L_0_4: L_0_0_4 = 0
Init_L_0_5: L_0_0_5 = 0
Init_L_1_0: L_0_1_0 = 0
Init_L_1_1: L_0_1_1 = 0
Init_L_1_2: L_0_1_2 = 0
Init_L_1_3: L_0_1_3 = 0
Init_L_1_4: L_0_1_4 = 0
Init_L_1_5: L_0_1_5 = 0
Init_L_2_0: L_0_2_0 = 0
Init_L_2_1: L_0_2_1 = 0
Init_L_2_2: L_0_2_2 = 1
Init_L_2_3: L_0_2_3 = 1
Init_L_2_4: L_0_2_4 = 0
Init_L_2_5: L_0_2_5 = 0
Init_L_3_0: L_0_3_0 = 0
Init_L_3_1: L_0_3_1 = 0
Init_L_3_2: L_0_3_2 = 0
Init_L_3_3: L_0_3_3 = 0
Init_L_3_4: L_0_3_4 = 0
Init_L_3_5: L_0_3_5 = 0
Init_L_4_0: L_0_4_0 = 0
Init_L_4_1: L_0_4_1 = 0
Init_L_4_2: L_0_4_2 = 0
Init_L_4_3: L_0_4_3 = 0
Init_L_4_4: L_0_4_4 = 1
Init_L_4_5: L_0_4_5 = 1
Init_L_5_0: L_0_5_0 = 0
Init_L_5_1: L_0_5_1 = 0
Init_L_5_2: L_0_5_2 = 0
Init_L_5_3: L_0_5_3 = 0
Init_L_5_4: L_0_5_4 = 0
Init_L_5_5: L_0_5_5 = 0
Iso_Match_0_0: Z_0_1_0 + Z_0_2_0 + Z_0_3_0 + Z_0_4_0 + Z_0_5_0 - p_0_1 = 0
Iso_Match_0_1: Z_0_1_1 + Z_0_2_1 + Z_0_3_1 + Z_0_4_1 + Z_0_5_1 - p_0_0 - p_0_2
 = 0
Iso_Match_0_2: Z_0_1_2 + Z_0_2_2 + Z_0_3_2 + Z_0_4_2 + Z_0_5_2 - p_0_1 = 0
Iso_Match_0_3: Z_0_1_3 + Z_0_2_3 + Z_0_3_3 + Z_0_4_3 + Z_0_5_3 - p_0_4 = 0
Iso_Match_0_4: Z_0_1_4 + Z_0_2_4 + Z_0_3_4 + Z_0_4_4 + Z_0_5_4 - p_0_3 = 0
Iso_Match_1_0: Z_1_0_0 + Z_1_2_0 + Z_1_3_0 + Z_1_4_0 + Z_1_5_0 - p_1_1 = 0
Iso_Match_1_1: Z_1_0_1 + Z_1_2_1 + Z_1_3_1 + Z_1_4_1 + Z_1_5_1 - p_1_0 - p_1_2
 = 0
Iso_Match_1_2: Z_1_0_2 + Z_1_2_2 + Z_1_3_2 + Z_1_4_2 + Z_1_5_2 - p_1_1 = 0
Iso_Match_1_3: Z_1_0_3 + Z_1_2_3 + Z_1_3_3 + Z_1_4_3 + Z_1_5_3 - p_1_4 = 0
Iso_Match_1_4: Z_1_0_4 + Z_1_2_4 + Z_1_3_4 + Z_1_4_4 + Z_1_5_4 - p_1_3 = 0
Iso_Match_2_0: Z_2_0_0 + Z_2_1_0 + Z_2_3_0 + Z_2_4_0 + Z_2_5_0 - p_2_1 = 0
Iso_Match_2_1: Z_2_0_1 + Z_2_1_1 + Z_2_3_1 + Z_2_4_1 + Z_2_5_1 - p_2_0 - p_2_2
 = 0
Iso_Match_2_2: Z_2_0_2 + Z_2_1_2 + Z_2_3_2 + Z_2_4_2 + Z_2_5_2 - p_2_1 = 0
Iso_Match_2_3: Z_2_0_3 + Z_2_1_3 + Z_2_3_3 + Z_2_4_3 + Z_2_5_3 - p_2_4 = 0
Iso_Match_2_4: Z_2_0_4 + Z_2_1_4 + Z_2_3_4 + Z_2_4_4 + Z_2_5_4 - p_2_3 = 0
Iso_Match_3_0: Z_3_0_0 + Z_3_1_0 + Z_3_2_0 + Z_3_4_0 + Z_3_5_0 - p_3_1 = 0
Iso_Match_3_1: Z_3_0_1 + Z_3_1_1 + Z_3_2_1 + Z_3_4_1 + Z_3_5_1 - p_3_0 - p_3_2
 = 0
Iso_Match_3_2: Z_3_0_2 + Z_3_1_2 + Z_3_2_2 + Z_3_4_2 + Z_3_5_2 - p_3_1 = 0
Iso_Match_3_3: Z_3_0_3 + Z_3_1_3 + Z_3_2_3 + Z_3_4_3 + Z_3_5_3 - p_3_4 = 0
Iso_Match_3_4: Z_3_0_4 + Z_3_1_4 + Z_3_2_4 + Z_3_4_4 + Z_3_5_4 - p_3_3 = 0
Iso_Match_4_0: Z_4_0_0 + Z_4_1_0 + Z_4_2_0 + Z_4_3_0 + Z_4_5_0 - p_4_1 = 0
Iso_Match_4_1: Z_4_0_1 + Z_4_1_1 + Z_4_2_1 + Z_4_3_1 + Z_4_5_1 - p_4_0 - p_4_2
 = 0
Iso_Match_4_2: Z_4_0_2 + Z_4_1_2 + Z_4_2_2 + Z_4_3_2 + Z_4_5_2 - p_4_1 = 0
Iso_Match_4_3: Z_4_0_3 + Z_4_1_3 + Z_4_2_3 + Z_4_3_3 + Z_4_5_3 - p_4_4 = 0
Iso_Match_4_4: Z_4_0_4 + Z_4_1_4 + Z_4_2_4 + Z_4_3_4 + Z_4_5_4 - p_4_3 = 0
Iso_Match_5_0: Z_5_0_0 + Z_5_1_0 + Z_5_2_0 + Z_5_3_0 + Z_5_4_0 - p_5_1 = 0
Iso_Match_5_1: Z_5_0_1 + Z_5_1_1 + Z_5_2_1 + Z_5_3_1 + Z_5_4_1 - p_5_0 - p_5_2
 = 0
Iso_Match_5_2: Z_5_0_2 + Z_5_1_2 + Z_5_2_2 + Z_5_3_2 + Z_5_4_2 - p_5_1 = 0
Iso_Match_5_3: Z_5_0_3 + Z_5_1_3 + Z_5_2_3 + Z_5_3_3 + Z_5_4_3 - p_5_4 = 0
Iso_Match_5_4: Z_5_0_4 + Z_5_1_4 + Z_5_2_4 + Z_5_3_4 + Z_5_4_4 - p_5_3 = 0
LC_Direct_LB_0_0_1: E_0_0_1 - E_1_0_1 + y_LC_0_0 + y_LC_0_1 <= 1
LC_Direct_LB_0_0_2: E_0_0_2 - E_1_0_2 + y_LC_0_0 + y_LC_0_2 <= 1
LC_Direct_LB_0_0_3: E_0_0_3 - E_1_0_3 + y_LC_0_0 + y_LC_0_3 <= 1
LC_Direct_LB_0_0_4: E_0_0_4 - E_1_0_4 + y_LC_0_0 + y_LC_0_4 <= 1
LC_Direct_LB_0_0_5: E_0_0_5 - E_1_0_5 + y_LC_0_0 + y_LC_0_5 <= 1
LC_Direct_LB_0_1_2: E_0_1_2 - E_1_1_2 + y_LC_0_1 + y_LC_0_2 <= 1
LC_Direct_LB_0_1_3: E_0_1_3 - E_1_1_3 + y_LC_0_1 + y_LC_0_3 <= 1
LC_Direct_LB_0_1_4: E_0_1_4 - E_1_1_4 + y_LC_0_1 + y_LC_0_4 <= 1
LC_Direct_LB_0_1_5: E_0_1_5 - E_1_1_5 + y_LC_0_1 + y_LC_0_5 <= 1
LC_Direct_LB_0_2_3: E_0_2_3 - E_1_2_3 + y_LC_0_2 + y_LC_0_3 <= 1
LC_Direct_LB_0_2_4: E_0_2_4 - E_1_2_4 + y_LC_0_2 + y_LC_0_4 <= 1
LC_Direct_LB_0_2_5: E_0_2_5 - E_1_2_5 + y_LC_0_2 + y_LC_0_5 <= 1
LC_Direct_LB_0_3_4: E_0_3_4 - E_1_3_4 + y_LC_0_3 + y_LC_0_4 <= 1
LC_Direct_LB_0_3_5: E_0_3_5 - E_1_3_5 + y_LC_0_3 + y_LC_0_5 <= 1
LC_Direct_LB_0_4_5: E_0_4_5 - E_1_4_5 + y_LC_0_4 + y_LC_0_5 <= 1
LC_Direct_LB_1_0_1: E_1_0_1 - E_2_0_1 + y_LC_1_0 + y_LC_1_1 <= 1
LC_Direct_LB_1_0_2: E_1_0_2 - E_2_0_2 + y_LC_1_0 + y_LC_1_2 <= 1
LC_Direct_LB_1_0_3: E_1_0_3 - E_2_0_3 + y_LC_1_0 + y_LC_1_3 <= 1
LC_Direct_LB_1_0_4: E_1_0_4 - E_2_0_4 + y_LC_1_0 + y_LC_1_4 <= 1
LC_Direct_LB_1_0_5: E_1_0_5 - E_2_0_5 + y_LC_1_0 + y_LC_1_5 <= 1
LC_Direct_LB_1_1_2: E_1_1_2 - E_2_1_2 + y_LC_1_1 + y_LC_1_2 <= 1
LC_Direct_LB_1_1_3: E_1_1_3 - E_2_1_3 + y_LC_1_1 + y_LC_1_3 <= 1
LC_Direct_LB_1_1_4: E_1_1_4 - E_2_1_4 + y_LC_1_1 + y_LC_1_4 <= 1
LC_Direct_LB_1_1_5: E_1_1_5 - E_2_1_5 + y_LC_1_1 + y_LC_1_5 <= 1
LC_Direct_LB_1_2_3: E_1_2_3 - E_2_2_3 + y_LC_1_2 + y_LC_1_3 <= 1
LC_Direct_LB_1_2_4: E_1_2_4 - E_2_2_4 + y_LC_1_2 + y_LC_1_4 <= 1
LC_Direct_LB_1_2_5: E_1_2_5 - E_2_2_5 + y_LC_1_2 + y_LC_1_5 <= 1
LC_Direct_LB_1_3_4: E_1_3_4 - E_2_3_4 + y_LC_1_3 + y_LC_1_4 <= 1
LC_Direct_LB_1_3_5: E_1_3_5 - E_2_3_5 + y_LC_1_3 + y_LC_1_5 <= 1
LC_Direct_LB_1_4_5: E_1_4_5 - E_2_4_5 + y_LC_1_4 + y_LC_1_5 <= 1
LC_Direct_LB_2_0_1: E_2_0_1 - E_3_0_1 + y_LC_2_0 + y_LC_2_1 <= 1
LC_Direct_LB_2_0_2: E_2_0_2 - E_3_0_2 + y_LC_2_0 + y_LC_2_2 <= 1
LC_Direct_LB_2_0_3: E_2_0_3 - E_3_0_3 + y_LC_2_0 + y_LC_2_3 <= 1
LC_Direct_LB_2_0_4: E_2_0_4 - E_3_0_4 + y_LC_2_0 + y_LC_2_4 <= 1
LC_Direct_LB_2_0_5: E_2_0_5 - E_3_0_5 + y_LC_2_0 + y_LC_2_5 <= 1
LC_Direct_LB_2_1_2: E_2_1_2 - E_3_1_2 + y_LC_2_1 + y_LC_2_2 <= 1
LC_Direct_LB_2_1_3: E_2_1_3 - E_3_1_3 + y_LC_2_1 + y_LC_2_3 <= 1
LC_Direct_LB_2_1_4: E_2_1_4 - E_3_1_4 + y_LC_2_1 + y_LC_2_4 <= 1
LC_Direct_LB_2_1_5: E_2_1_5 - E_3_1_5 + y_LC_2_1 + y_LC_2_5 <= 1
LC_Direct_LB_2_2_3: E_2_2_3 - E_3_2_3 + y_LC_2_2 + y_LC_2_3 <= 1
LC_Direct_LB_2_2_4: E_2_2_4 - E_3_2_4 + y_LC_2_2 + y_LC_2_4 <= 1
LC_Direct_LB_2_2_5: E_2_2_5 - E_3_2_5 + y_LC_2_2 + y_LC_2_5 <= 1
LC_Direct_LB_2_3_4: E_2_3_4 - E_3_3_4 + y_LC_2_3 + y_LC_2_4 <= 1
LC_Direct_LB_2_3_5: E_2_3_5 - E_3_3_5 + y_LC_2_3 + y_LC_2_5 <= 1
LC_Direct_LB_2_4_5: E_2_4_5 - E_3_4_5 + y_LC_2_4 + y_LC_2_5 <= 1
LC_Direct_LB_3_0_1: E_3_0_1 - E_4_0_1 + y_LC_3_0 + y_LC_3_1 <= 1
LC_Direct_LB_3_0_2: E_3_0_2 - E_4_0_2 + y_LC_3_0 + y_LC_3_2 <= 1
LC_Direct_LB_3_0_3: E_3_0_3 - E_4_0_3 + y_LC_3_0 + y_LC_3_3 <= 1
LC_Direct_LB_3_0_4: E_3_0_4 - E_4_0_4 + y_LC_3_0 + y_LC_3_4 <= 1
LC_Direct_LB_3_0_5: E_3_0_5 - E_4_0_5 + y_LC_3_0 + y_LC_3_5 <= 1
LC_Direct_LB_3_1_2: E_3_1_2 - E_4_1_2 + y_LC_3_1 + y_LC_3_2 <= 1
LC_Direct_LB_3_1_3: E_3_1_3 - E_4_1_3 + y_LC_3_1 + y_LC_3_3 <= 1
LC_Direct_LB_3_1_4: E_3_1_4 - E_4_1_4 + y_LC_3_1 + y_LC_3_4 <= 1
LC_Direct_LB_3_1_5: E_3_1_5 - E_4_1_5 + y_LC_3_1 + y_LC_3_5 <= 1
LC_Direct_LB_3_2_3: E_3_2_3 - E_4_2_3 + y_LC_3_2 + y_LC_3_3 <= 1
LC_Direct_LB_3_2_4: E_3_2_4 - E_4_2_4 + y_LC_3_2 + y_LC_3_4 <= 1
LC_Direct_LB_3_2_5: E_3_2_5 - E_4_2_5 + y_LC_3_2 + y_LC_3_5 <= 1
LC_Direct_LB_3_3_4: E_3_3_4 - E_4_3_4 + y_LC_3_3 + y_LC_3_4 <= 1
LC_Direct_LB_3_3_5: E_3_3_5 - E_4_3_5 + y_LC_3_3 + y_LC_3_5 <= 1
LC_Direct_LB_3_4_5: E_3_4_5 - E_4_4_5 + y_LC_3_4 + y_LC_3_5 <= 1
LC_Direct_UB_0_0_1: - E_0_0_1 + E_1_0_1 + y_LC_0_0 + y_LC_0_1 <= 1
LC_Direct_UB_0_0_2: - E_0_0_2 + E_1_0_2 + y_LC_0_0 + y_LC_0_2 <= 1
LC_Direct_UB_0_0_3: - E_0_0_3 + E_1_0_3 + y_LC_0_0 + y_LC_0_3 <= 1
LC_Direct_UB_0_0_4: - E_0_0_4 + E_1_0_4 + y_LC_0_0 + y_LC_0_4 <= 1
LC_Direct_UB_0_0_5: - E_0_0_5 + E_1_0_5 + y_LC_0_0 + y_LC_0_5 <= 1
LC_Direct_UB_0_1_2: - E_0_1_2 + E_1_1_2 + y_LC_0_1 + y_LC_0_2 <= 1
LC_Direct_UB_0_1_3: - E_0_1_3 + E_1_1_3 + y_LC_0_1 + y_LC_0_3 <= 1
LC_Direct_UB_0_1_4: - E_0_1_4 + E_1_1_4 + y_LC_0_1 + y_LC_0_4 <= 1
LC_Direct_UB_0_1_5: - E_0_1_5 + E_1_1_5 + y_LC_0_1 + y_LC_0_5 <= 1
LC_Direct_UB_0_2_3: - E_0_2_3 + E_1_2_3 + y_LC_0_2 + y_LC_0_3 <= 1
LC_Direct_UB_0_2_4: - E_0_2_4 + E_1_2_4 + y_LC_0_2 + y_LC_0_4 <= 1
LC_Direct_UB_0_2_5: - E_0_2_5 + E_1_2_5 + y_LC_0_2 + y_LC_0_5 <= 1
LC_Direct_UB_0_3_4: - E_0_3_4 + E_1_3_4 + y_LC_0_3 + y_LC_0_4 <= 1
LC_Direct_UB_0_3_5: - E_0_3_5 + E_1_3_5 + y_LC_0_3 + y_LC_0_5 <= 1
LC_Direct_UB_0_4_5: - E_0_4_5 + E_1_4_5 + y_LC_0_4 + y_LC_0_5 <= 1
LC_Direct_UB_1_0_1: - E_1_0_1 + E_2_0_1 + y_LC_1_0 + y_LC_1_1 <= 1
LC_Direct_UB_1_0_2: - E_1_0_2 + E_2_0_2 + y_LC_1_0 + y_LC_1_2 <= 1
LC_Direct_UB_1_0_3: - E_1_0_3 + E_2_0_3 + y_LC_1_0 + y_LC_1_3 <= 1
LC_Direct_UB_1_0_4: - E_1_0_4 + E_2_0_4 + y_LC_1_0 + y_LC_1_4 <= 1
LC_Direct_UB_1_0_5: - E_1_0_5 + E_2_0_5 + y_LC_1_0 + y_LC_1_5 <= 1
LC_Direct_UB_1_1_2: - E_1_1_2 + E_2_1_2 + y_LC_1_1 + y_LC_1_2 <= 1
LC_Direct_UB_1_1_3: - E_1_1_3 + E_2_1_3 + y_LC_1_1 + y_LC_1_3 <= 1
LC_Direct_UB_1_1_4: - E_1_1_4 + E_2_1_4 + y_LC_1_1 + y_LC_1_4 <= 1
LC_Direct_UB_1_1_5: - E_1_1_5 + E_2_1_5 + y_LC_1_1 + y_LC_1_5 <= 1
LC_Direct_UB_1_2_3: - E_1_2_3 + E_2_2_3 + y_LC_1_2 + y_LC_1_3 <= 1
LC_Direct_UB_1_2_4: - E_1_2_4 + E_2_2_4 + y_LC_1_2 + y_LC_1_4 <= 1
LC_Direct_UB_1_2_5: - E_1_2_5 + E_2_2_5 + y_LC_1_2 + y_LC_1_5 <= 1
LC_Direct_UB_1_3_4: - E_1_3_4 + E_2_3_4 + y_LC_1_3 + y_LC_1_4 <= 1
LC_Direct_UB_1_3_5: - E_1_3_5 + E_2_3_5 + y_LC_1_3 + y_LC_1_5 <= 1
LC_Direct_UB_1_4_5: - E_1_4_5 + E_2_4_5 + y_LC_1_4 + y_LC_1_5 <= 1
LC_Direct_UB_2_0_1: - E_2_0_1 + E_3_0_1 + y_LC_2_0 + y_LC_2_1 <= 1
LC_Direct_UB_2_0_2: - E_2_0_2 + E_3_0_2 + y_LC_2_0 + y_LC_2_2 <= 1
LC_Direct_UB_2_0_3: - E_2_0_3 + E_3_0_3 + y_LC_2_0 + y_LC_2_3 <= 1
LC_Direct_UB_2_0_4: - E_2_0_4 + E_3_0_4 + y_LC_2_0 + y_LC_2_4 <= 1
LC_Direct_UB_2_0_5: - E_2_0_5 + E_3_0_5 + y_LC_2_0 + y_LC_2_5 <= 1
LC_Direct_UB_2_1_2: - E_2_1_2 + E_3_1_2 + y_LC_2_1 + y_LC_2_2 <= 1
LC_Direct_UB_2_1_3: - E_2_1_3 + E_3_1_3 + y_LC_2_1 + y_LC_2_3 <= 1
LC_Direct_UB_2_1_4: - E_2_1_4 + E_3_1_4 + y_LC_2_1 + y_LC_2_4 <= 1
LC_Direct_UB_2_1_5: - E_2_1_5 + E_3_1_5 + y_LC_2_1 + y_LC_2_5 <= 1
LC_Direct_UB_2_2_3: - E_2_2_3 + E_3_2_3 + y_LC_2_2 + y_LC_2_3 <= 1
LC_Direct_UB_2_2_4: - E_2_2_4 + E_3_2_4 + y_LC_2_2 + y_LC_2_4 <= 1
LC_Direct_UB_2_2_5: - E_2_2_5 + E_3_2_5 + y_LC_2_2 + y_LC_2_5 <= 1
LC_Direct_UB_2_3_4: - E_2_3_4 + E_3_3_4 + y_LC_2_3 + y_LC_2_4 <= 1
LC_Direct_UB_2_3_5: - E_2_3_5 + E_3_3_5 + y_LC_2_3 + y_LC_2_5 <= 1
LC_Direct_UB_2_4_5: - E_2_4_5 + E_3_4_5 + y_LC_2_4 + y_LC_2_5 <= 1
LC_Direct_UB_3_0_1: - E_3_0_1 + E_4_0_1 + y_LC_3_0 + y_LC_3_1 <= 1
LC_Direct_UB_3_0_2: - E_3_0_2 + E_4_0_2 + y_LC_3_0 + y_LC_3_2 <= 1
LC_Direct_UB_3_0_3: - E_3_0_3 + E_4_0_3 + y_LC_3_0 + y_LC_3_3 <= 1
LC_Direct_UB_3_0_4: - E_3_0_4 + E_4_0_4 + y_LC_3_0 + y_LC_3_4 <= 1
LC_Direct_UB_3_0_5: - E_3_0_5 + E_4_0_5 + y_LC_3_0 + y_LC_3_5 <= 1
LC_Direct_UB_3_1_2: - E_3_1_2 + E_4_1_2 + y_LC_3_1 + y_LC_3_2 <= 1
LC_Direct_UB_3_1_3: - E_3_1_3 + E_4_1_3 + y_LC_3_1 + y_LC_3_3 <= 1
LC_Direct_UB_3_1_4: - E_3_1_4 + E_4_1_4 + y_LC_3_1 + y_LC_3_4 <= 1
LC_Direct_UB_3_1_5: - E_3_1_5 + E_4_1_5 + y_LC_3_1 + y_LC_3_5 <= 1
LC_Direct_UB_3_2_3: - E_3_2_3 + E_4_2_3 + y_LC_3_2 + y_LC_3_3 <= 1
LC_Direct_UB_3_2_4: - E_3_2_4 + E_4_2_4 + y_LC_3_2 + y_LC_3_4 <= 1
LC_Direct_UB_3_2_5: - E_3_2_5 + E_4_2_5 + y_LC_3_2 + y_LC_3_5 <= 1
LC_Direct_UB_3_3_4: - E_3_3_4 + E_4_3_4 + y_LC_3_3 + y_LC_3_4 <= 1
LC_Direct_UB_3_3_5: - E_3_3_5 + E_4_3_5 + y_LC_3_3 + y_LC_3_5 <= 1
LC_Direct_UB_3_4_5: - E_3_4_5 + E_4_4_5 + y_LC_3_4 + y_LC_3_5 <= 1
LC_Dum_L_LB_0_0_0: L_0_0_0 - L_1_0_0 + y_LC_active_0 + y_dummy_0 <= 1
LC_Dum_L_LB_0_0_1: L_0_0_1 - L_1_0_1 + y_LC_active_0 + y_dummy_0 <= 1
LC_Dum_L_LB_0_0_2: L_0_0_2 - L_1_0_2 + y_LC_active_0 + y_dummy_0 <= 1
LC_Dum_L_LB_0_0_3: L_0_0_3 - L_1_0_3 + y_LC_active_0 + y_dummy_0 <= 1
LC_Dum_L_LB_0_0_4: L_0_0_4 - L_1_0_4 + y_LC_active_0 + y_dummy_0 <= 1
LC_Dum_L_LB_0_0_5: L_0_0_5 - L_1_0_5 + y_LC_active_0 + y_dummy_0 <= 1
LC_Dum_L_LB_0_1_0: L_0_1_0 - L_1_1_0 + y_LC_active_0 + y_dummy_0 <= 1
LC_Dum_L_LB_0_1_1: L_0_1_1 - L_1_1_1 + y_LC_active_0 + y_dummy_0 <= 1
LC_Dum_L_LB_0_1_2: L_0_1_2 - L_1_1_2 + y_LC_active_0 + y_dummy_0 <= 1
LC_Dum_L_LB_0_1_3: L_0_1_3 - L_1_1_3 + y_LC_active_0 + y_dummy_0 <= 1
LC_Dum_L_LB_0_1_4: L_0_1_4 - L_1_1_4 + y_LC_active_0 + y_dummy_0 <= 1
LC_Dum_L_LB_0_1_5: L_0_1_5 - L_1_1_5 + y_LC_active_0 + y_dummy_0 <= 1
LC_Dum_L_LB_0_2_0: L_0_2_0 - L_1_2_0 + y_LC_active_0 + y_dummy_0 <= 1
LC_Dum_L_LB_0_2_1: L_0_2_1 - L_1_2_1 + y_LC_active_0 + y_dummy_0 <= 1
LC_Dum_L_LB_0_2_2: L_0_2_2 - L_1_2_2 + y_LC_active_0 + y_dummy_0 <= 1
LC_Dum_L_LB_0_2_3: L_0_2_3 - L_1_2_3 + y_LC_active_0 + y_dummy_0 <= 1
LC_Dum_L_LB_0_2_4: L_0_2_4 - L_1_2_4 + y_LC_active_0 + y_dummy_0 <= 1
LC_Dum_L_LB_0_2_5: L_0_2_5 - L_1_2_5 + y_LC_active_0 + y_dummy_0 <= 1
LC_Dum_L_LB_0_3_0: L_0_3_0 - L_1_3_0 + y_LC_active_0 + y_dummy_0 <= 1
LC_Dum_L_LB_0_3_1: L_0_3_1 - L_1_3_1 + y_LC_active_0 + y_dummy_0 <= 1
LC_Dum_L_LB_0_3_2: L_0_3_2 - L_1_3_2 + y_LC_active_0 + y_dummy_0 <= 1
LC_Dum_L_LB_0_3_3: L_0_3_3 - L_1_3_3 + y_LC_active_0 + y_dummy_0 <= 1
LC_Dum_L_LB_0_3_4: L_0_3_4 - L_1_3_4 + y_LC_active_0 + y_dummy_0 <= 1
LC_Dum_L_LB_0_3_5: L_0_3_5 - L_1_3_5 + y_LC_active_0 + y_dummy_0 <= 1
LC_Dum_L_LB_0_4_0: L_0_4_0 - L_1_4_0 + y_LC_active_0 + y_dummy_0 <= 1
LC_Dum_L_LB_0_4_1: L_0_4_1 - L_1_4_1 + y_LC_active_0 + y_dummy_0 <= 1
LC_Dum_L_LB_0_4_2: L_0_4_2 - L_1_4_2 + y_LC_active_0 + y_dummy_0 <= 1
LC_Dum_L_LB_0_4_3: L_0_4_3 - L_1_4_3 + y_LC_active_0 + y_dummy_0 <= 1
LC_Dum_L_LB_0_4_4: L_0_4_4 - L_1_4_4 + y_LC_active_0 + y_dummy_0 <= 1
LC_Dum_L_LB_0_4_5: L_0_4_5 - L_1_4_5 + y_LC_active_0 + y_dummy_0 <= 1
LC_Dum_L_LB_0_5_0: L_0_5_0 - L_1_5_0 + y_LC_active_0 + y_dummy_0 <= 1
LC_Dum_L_LB_0_5_1: L_0_5_1 - L_1_5_1 + y_LC_active_0 + y_dummy_0 <= 1
LC_Dum_L_LB_0_5_2: L_0_5_2 - L_1_5_2 + y_LC_active_0 + y_dummy_0 <= 1
LC_Dum_L_LB_0_5_3: L_0_5_3 - L_1_5_3 + y_LC_active_0 + y_dummy_0 <= 1
LC_Dum_L_LB_0_5_4: L_0_5_4 - L_1_5_4 + y_LC_active_0 + y_dummy_0 <= 1
LC_Dum_L_LB_0_5_5: L_0_5_5 - L_1_5_5 + y_LC_active_0 + y_dummy_0 <= 1
LC_Dum_L_LB_1_0_0: L_1_0_0 - L_2_0_0 + y_LC_active_1 + y_dummy_1 <= 1
LC_Dum_L_LB_1_0_1: L_1_0_1 - L_2_0_1 + y_LC_active_1 + y_dummy_1 <= 1
LC_Dum_L_LB_1_0_2: L_1_0_2 - L_2_0_2 + y_LC_active_1 + y_dummy_1 <= 1
LC_Dum_L_LB_1_0_3: L_1_0_3 - L_2_0_3 + y_LC_active_1 + y_dummy_1 <= 1
LC_Dum_L_LB_1_0_4: L_1_0_4 - L_2_0_4 + y_LC_active_1 + y_dummy_1 <= 1
LC_Dum_L_LB_1_0_5: L_1_0_5 - L_2_0_5 + y_LC_active_1 + y_dummy_1 <= 1
LC_Dum_L_LB_1_1_0: L_1_1_0 - L_2_1_0 + y_LC_active_1 + y_dummy_1 <= 1
LC_Dum_L_LB_1_1_1: L_1_1_1 - L_2_1_1 + y_LC_active_1 + y_dummy_1 <= 1
LC_Dum_L_LB_1_1_2: L_1_1_2 - L_2_1_2 + y_LC_active_1 + y_dummy_1 <= 1
LC_Dum_L_LB_1_1_3: L_1_1_3 - L_2_1_3 + y_LC_active_1 + y_dummy_1 <= 1
LC_Dum_L_LB_1_1_4: L_1_1_4 - L_2_1_4 + y_LC_active_1 + y_dummy_1 <= 1
LC_Dum_L_LB_1_1_5: L_1_1_5 - L_2_1_5 + y_LC_active_1 + y_dummy_1 <= 1
LC_Dum_L_LB_1_2_0: L_1_2_0 - L_2_2_0 + y_LC_active_1 + y_dummy_1 <= 1
LC_Dum_L_LB_1_2_1: L_1_2_1 - L_2_2_1 + y_LC_active_1 + y_dummy_1 <= 1
LC_Dum_L_LB_1_2_2: L_1_2_2 - L_2_2_2 + y_LC_active_1 + y_dummy_1 <= 1
LC_Dum_L_LB_1_2_3: L_1_2_3 - L_2_2_3 + y_LC_active_1 + y_dummy_1 <= 1
LC_Dum_L_LB_1_2_4: L_1_2_4 - L_2_2_4 + y_LC_active_1 + y_dummy_1 <= 1
LC_Dum_L_LB_1_2_5: L_1_2_5 - L_2_2_5 + y_LC_active_1 + y_dummy_1 <= 1
LC_Dum_L_LB_1_3_0: L_1_3_0 - L_2_3_0 + y_LC_active_1 + y_dummy_1 <= 1
LC_Dum_L_LB_1_3_1: L_1_3_1 - L_2_3_1 + y_LC_active_1 + y_dummy_1 <= 1
LC_Dum_L_LB_1_3_2: L_1_3_2 - L_2_3_2 + y_LC_active_1 + y_dummy_1 <= 1
LC_Dum_L_LB_1_3_3: L_1_3_3 - L_2_3_3 + y_LC_active_1 + y_dummy_1 <= 1
LC_Dum_L_LB_1_3_4: L_1_3_4 - L_2_3_4 + y_LC_active_1 + y_dummy_1 <= 1
LC_Dum_L_LB_1_3_5: L_1_3_5 - L_2_3_5 + y_LC_active_1 + y_dummy_1 <= 1
LC_Dum_L_LB_1_4_0: L_1_4_0 - L_2_4_0 + y_LC_active_1 + y_dummy_1 <= 1
LC_Dum_L_LB_1_4_1: L_1_4_1 - L_2_4_1 + y_LC_active_1 + y_dummy_1 <= 1
LC_Dum_L_LB_1_4_2: L_1_4_2 - L_2_4_2 + y_LC_active_1 + y_dummy_1 <= 1
LC_Dum_L_LB_1_4_3: L_1_4_3 - L_2_4_3 + y_LC_active_1 + y_dummy_1 <= 1
LC_Dum_L_LB_1_4_4: L_1_4_4 - L_2_4_4 + y_LC_active_1 + y_dummy_1 <= 1
LC_Dum_L_LB_1_4_5: L_1_4_5 - L_2_4_5 + y_LC_active_1 + y_dummy_1 <= 1
LC_Dum_L_LB_1_5_0: L_1_5_0 - L_2_5_0 + y_LC_active_1 + y_dummy_1 <= 1
LC_Dum_L_LB_1_5_1: L_1_5_1 - L_2_5_1 + y_LC_active_1 + y_dummy_1 <= 1
LC_Dum_L_LB_1_5_2: L_1_5_2 - L_2_5_2 + y_LC_active_1 + y_dummy_1 <= 1
LC_Dum_L_LB_1_5_3: L_1_5_3 - L_2_5_3 + y_LC_active_1 + y_dummy_1 <= 1
LC_Dum_L_LB_1_5_4: L_1_5_4 - L_2_5_4 + y_LC_active_1 + y_dummy_1 <= 1
LC_Dum_L_LB_1_5_5: L_1_5_5 - L_2_5_5 + y_LC_active_1 + y_dummy_1 <= 1
LC_Dum_L_LB_2_0_0: L_2_0_0 - L_3_0_0 + y_LC_active_2 + y_dummy_2 <= 1
LC_Dum_L_LB_2_0_1: L_2_0_1 - L_3_0_1 + y_LC_active_2 + y_dummy_2 <= 1
LC_Dum_L_LB_2_0_2: L_2_0_2 - L_3_0_2 + y_LC_active_2 + y_dummy_2 <= 1
LC_Dum_L_LB_2_0_3: L_2_0_3 - L_3_0_3 + y_LC_active_2 + y_dummy_2 <= 1
LC_Dum_L_LB_2_0_4: L_2_0_4 - L_3_0_4 + y_LC_active_2 + y_dummy_2 <= 1
LC_Dum_L_LB_2_0_5: L_2_0_5 - L_3_0_5 + y_LC_active_2 + y_dummy_2 <= 1
LC_Dum_L_LB_2_1_0: L_2_1_0 - L_3_1_0 + y_LC_active_2 + y_dummy_2 <= 1
LC_Dum_L_LB_2_1_1: L_2_1_1 - L_3_1_1 + y_LC_active_2 + y_dummy_2 <= 1
LC_Dum_L_LB_2_1_2: L_2_1_2 - L_3_1_2 + y_LC_active_2 + y_dummy_2 <= 1
LC_Dum_L_LB_2_1_3: L_2_1_3 - L_3_1_3 + y_LC_active_2 + y_dummy_2 <= 1
LC_Dum_L_LB_2_1_4: L_2_1_4 - L_3_1_4 + y_LC_active_2 + y_dummy_2 <= 1
LC_Dum_L_LB_2_1_5: L_2_1_5 - L_3_1_5 + y_LC_active_2 + y_dummy_2 <= 1
LC_Dum_L_LB_2_2_0: L_2_2_0 - L_3_2_0 + y_LC_active_2 + y_dummy_2 <= 1
LC_Dum_L_LB_2_2_1: L_2_2_1 - L_3_2_1 + y_LC_active_2 + y_dummy_2 <= 1
LC_Dum_L_LB_2_2_2: L_2_2_2 - L_3_2_2 + y_LC_active_2 + y_dummy_2 <= 1
LC_Dum_L_LB_2_2_3: L_2_2_3 - L_3_2_3 + y_LC_active_2 + y_dummy_2 <= 1
LC_Dum_L_LB_2_2_4: L_2_2_4 - L_3_2_4 + y_LC_active_2 + y_dummy_2 <= 1
LC_Dum_L_LB_2_2_5: L_2_2_5 - L_3_2_5 + y_LC_active_2 + y_dummy_2 <= 1
LC_Dum_L_LB_2_3_0: L_2_3_0 - L_3_3_0 + y_LC_active_2 + y_dummy_2 <= 1
LC_Dum_L_LB_2_3_1: L_2_3_1 - L_3_3_1 + y_LC_active_2 + y_dummy_2 <= 1
LC_Dum_L_LB_2_3_2: L_2_3_2 - L_3_3_2 + y_LC_active_2 + y_dummy_2 <= 1
LC_Dum_L_LB_2_3_3: L_2_3_3 - L_3_3_3 + y_LC_active_2 + y_dummy_2 <= 1
LC_Dum_L_LB_2_3_4: L_2_3_4 - L_3_3_4 + y_LC_active_2 + y_dummy_2 <= 1
LC_Dum_L_LB_2_3_5: L_2_3_5 - L_3_3_5 + y_LC_active_2 + y_dummy_2 <= 1
LC_Dum_L_LB_2_4_0: L_2_4_0 - L_3_4_0 + y_LC_active_2 + y_dummy_2 <= 1
LC_Dum_L_LB_2_4_1: L_2_4_1 - L_3_4_1 + y_LC_active_2 + y_dummy_2 <= 1
LC_Dum_L_LB_2_4_2: L_2_4_2 - L_3_4_2 + y_LC_active_2 + y_dummy_2 <= 1
LC_Dum_L_LB_2_4_3: L_2_4_3 - L_3_4_3 + y_LC_active_2 + y_dummy_2 <= 1
LC_Dum_L_LB_2_4_4: L_2_4_4 - L_3_4_4 + y_LC_active_2 + y_dummy_2 <= 1
LC_Dum_L_LB_2_4_5: L_2_4_5 - L_3_4_5 + y_LC_active_2 + y_dummy_2 <= 1
LC_Dum_L_LB_2_5_0: L_2_5_0 - L_3_5_0 + y_LC_active_2 + y_dummy_2 <= 1
LC_Dum_L_LB_2_5_1: L_2_5_1 - L_3_5_1 + y_LC_active_2 + y_dummy_2 <= 1
LC_Dum_L_LB_2_5_2: L_2_5_2 - L_3_5_2 + y_LC_active_2 + y_dummy_2 <= 1
LC_Dum_L_LB_2_5_3: L_2_5_3 - L_3_5_3 + y_LC_active_2 + y_dummy_2 <= 1
LC_Dum_L_LB_2_5_4: L_2_5_4 - L_3_5_4 + y_LC_active_2 + y_dummy_2 <= 1
LC_Dum_L_LB_2_5_5: L_2_5_5 - L_3_5_5 + y_LC_active_2 + y_dummy_2 <= 1
LC_Dum_L_LB_3_0_0: L_3_0_0 - L_4_0_0 + y_LC_active_3 + y_dummy_3 <= 1
LC_Dum_L_LB_3_0_1: L_3_0_1 - L_4_0_1 + y_LC_active_3 + y_dummy_3 <= 1
LC_Dum_L_LB_3_0_2: L_3_0_2 - L_4_0_2 + y_LC_active_3 + y_dummy_3 <= 1
LC_Dum_L_LB_3_0_3: L_3_0_3 - L_4_0_3 + y_LC_active_3 + y_dummy_3 <= 1
LC_Dum_L_LB_3_0_4: L_3_0_4 - L_4_0_4 + y_LC_active_3 + y_dummy_3 <= 1
LC_Dum_L_LB_3_0_5: L_3_0_5 - L_4_0_5 + y_LC_active_3 + y_dummy_3 <= 1
LC_Dum_L_LB_3_1_0: L_3_1_0 - L_4_1_0 + y_LC_active_3 + y_dummy_3 <= 1
LC_Dum_L_LB_3_1_1: L_3_1_1 - L_4_1_1 + y_LC_active_3 + y_dummy_3 <= 1
LC_Dum_L_LB_3_1_2: L_3_1_2 - L_4_1_2 + y_LC_active_3 + y_dummy_3 <= 1
LC_Dum_L_LB_3_1_3: L_3_1_3 - L_4_1_3 + y_LC_active_3 + y_dummy_3 <= 1
LC_Dum_L_LB_3_1_4: L_3_1_4 - L_4_1_4 + y_LC_active_3 + y_dummy_3 <= 1
LC_Dum_L_LB_3_1_5: L_3_1_5 - L_4_1_5 + y_LC_active_3 + y_dummy_3 <= 1
LC_Dum_L_LB_3_2_0: L_3_2_0 - L_4_2_0 + y_LC_active_3 + y_dummy_3 <= 1
LC_Dum_L_LB_3_2_1: L_3_2_1 - L_4_2_1 + y_LC_active_3 + y_dummy_3 <= 1
LC_Dum_L_LB_3_2_2: L_3_2_2 - L_4_2_2 + y_LC_active_3 + y_dummy_3 <= 1
LC_Dum_L_LB_3_2_3: L_3_2_3 - L_4_2_3 + y_LC_active_3 + y_dummy_3 <= 1
LC_Dum_L_LB_3_2_4: L_3_2_4 - L_4_2_4 + y_LC_active_3 + y_dummy_3 <= 1
LC_Dum_L_LB_3_2_5: L_3_2_5 - L_4_2_5 + y_LC_active_3 + y_dummy_3 <= 1
LC_Dum_L_LB_3_3_0: L_3_3_0 - L_4_3_0 + y_LC_active_3 + y_dummy_3 <= 1
LC_Dum_L_LB_3_3_1: L_3_3_1 - L_4_3_1 + y_LC_active_3 + y_dummy_3 <= 1
LC_Dum_L_LB_3_3_2: L_3_3_2 - L_4_3_2 + y_LC_active_3 + y_dummy_3 <= 1
LC_Dum_L_LB_3_3_3: L_3_3_3 - L_4_3_3 + y_LC_active_3 + y_dummy_3 <= 1
LC_Dum_L_LB_3_3_4: L_3_3_4 - L_4_3_4 + y_LC_active_3 + y_dummy_3 <= 1
LC_Dum_L_LB_3_3_5: L_3_3_5 - L_4_3_5 + y_LC_active_3 + y_dummy_3 <= 1
LC_Dum_L_LB_3_4_0: L_3_4_0 - L_4_4_0 + y_LC_active_3 + y_dummy_3 <= 1
LC_Dum_L_LB_3_4_1: L_3_4_1 - L_4_4_1 + y_LC_active_3 + y_dummy_3 <= 1
LC_Dum_L_LB_3_4_2: L_3_4_2 - L_4_4_2 + y_LC_active_3 + y_dummy_3 <= 1
LC_Dum_L_LB_3_4_3: L_3_4_3 - L_4_4_3 + y_LC_active_3 + y_dummy_3 <= 1
LC_Dum_L_LB_3_4_4: L_3_4_4 - L_4_4_4 + y_LC_active_3 + y_dummy_3 <= 1
LC_Dum_L_LB_3_4_5: L_3_4_5 - L_4_4_5 + y_LC_active_3 + y_dummy_3 <= 1
LC_Dum_L_LB_3_5_0: L_3_5_0 - L_4_5_0 + y_LC_active_3 + y_dummy_3 <= 1
LC_Dum_L_LB_3_5_1: L_3_5_1 - L_4_5_1 + y_LC_active_3 + y_dummy_3 <= 1
LC_Dum_L_LB_3_5_2: L_3_5_2 - L_4_5_2 + y_LC_active_3 + y_dummy_3 <= 1
LC_Dum_L_LB_3_5_3: L_3_5_3 - L_4_5_3 + y_LC_active_3 + y_dummy_3 <= 1
LC_Dum_L_LB_3_5_4: L_3_5_4 - L_4_5_4 + y_LC_active_3 + y_dummy_3 <= 1
LC_Dum_L_LB_3_5_5: L_3_5_5 - L_4_5_5 + y_LC_active_3 + y_dummy_3 <= 1
LC_Dum_L_UB_0_0_0: - L_0_0_0 + L_1_0_0 + y_LC_active_0 + y_dummy_0 <= 1
LC_Dum_L_UB_0_0_1: - L_0_0_1 + L_1_0_1 + y_LC_active_0 + y_dummy_0 <= 1
LC_Dum_L_UB_0_0_2: - L_0_0_2 + L_1_0_2 + y_LC_active_0 + y_dummy_0 <= 1
LC_Dum_L_UB_0_0_3: - L_0_0_3 + L_1_0_3 + y_LC_active_0 + y_dummy_0 <= 1
LC_Dum_L_UB_0_0_4: - L_0_0_4 + L_1_0_4 + y_LC_active_0 + y_dummy_0 <= 1
LC_Dum_L_UB_0_0_5: - L_0_0_5 + L_1_0_5 + y_LC_active_0 + y_dummy_0 <= 1
LC_Dum_L_UB_0_1_0: - L_0_1_0 + L_1_1_0 + y_LC_active_0 + y_dummy_0 <= 1
LC_Dum_L_UB_0_1_1: - L_0_1_1 + L_1_1_1 + y_LC_active_0 + y_dummy_0 <= 1
LC_Dum_L_UB_0_1_2: - L_0_1_2 + L_1_1_2 + y_LC_active_0 + y_dummy_0 <= 1
LC_Dum_L_UB_0_1_3: - L_0_1_3 + L_1_1_3 + y_LC_active_0 + y_dummy_0 <= 1
LC_Dum_L_UB_0_1_4: - L_0_1_4 + L_1_1_4 + y_LC_active_0 + y_dummy_0 <= 1
LC_Dum_L_UB_0_1_5: - L_0_1_5 + L_1_1_5 + y_LC_active_0 + y_dummy_0 <= 1
LC_Dum_L_UB_0_2_0: - L_0_2_0 + L_1_2_0 + y_LC_active_0 + y_dummy_0 <= 1
LC_Dum_L_UB_0_2_1: - L_0_2_1 + L_1_2_1 + y_LC_active_0 + y_dummy_0 <= 1
LC_Dum_L_UB_0_2_2: - L_0_2_2 + L_1_2_2 + y_LC_active_0 + y_dummy_0 <= 1
LC_Dum_L_UB_0_2_3: - L_0_2_3 + L_1_2_3 + y_LC_active_0 + y_dummy_0 <= 1
LC_Dum_L_UB_0_2_4: - L_0_2_4 + L_1_2_4 + y_LC_active_0 + y_dummy_0 <= 1
LC_Dum_L_UB_0_2_5: - L_0_2_5 + L_1_2_5 + y_LC_active_0 + y_dummy_0 <= 1
LC_Dum_L_UB_0_3_0: - L_0_3_0 + L_1_3_0 + y_LC_active_0 + y_dummy_0 <= 1
LC_Dum_L_UB_0_3_1: - L_0_3_1 + L_1_3_1 + y_LC_active_0 + y_dummy_0 <= 1
LC_Dum_L_UB_0_3_2: - L_0_3_2 + L_1_3_2 + y_LC_active_0 + y_dummy_0 <= 1
LC_Dum_L_UB_0_3_3: - L_0_3_3 + L_1_3_3 + y_LC_active_0 + y_dummy_0 <= 1
LC_Dum_L_UB_0_3_4: - L_0_3_4 + L_1_3_4 + y_LC_active_0 + y_dummy_0 <= 1
LC_Dum_L_UB_0_3_5: - L_0_3_5 + L_1_3_5 + y_LC_active_0 + y_dummy_0 <= 1
LC_Dum_L_UB_0_4_0: - L_0_4_0 + L_1_4_0 + y_LC_active_0 + y_dummy_0 <= 1
LC_Dum_L_UB_0_4_1: - L_0_4_1 + L_1_4_1 + y_LC_active_0 + y_dummy_0 <= 1
LC_Dum_L_UB_0_4_2: - L_0_4_2 + L_1_4_2 + y_LC_active_0 + y_dummy_0 <= 1
LC_Dum_L_UB_0_4_3: - L_0_4_3 + L_1_4_3 + y_LC_active_0 + y_dummy_0 <= 1
LC_Dum_L_UB_0_4_4: - L_0_4_4 + L_1_4_4 + y_LC_active_0 + y_dummy_0 <= 1
LC_Dum_L_UB_0_4_5: - L_0_4_5 + L_1_4_5 + y_LC_active_0 + y_dummy_0 <= 1
LC_Dum_L_UB_0_5_0: - L_0_5_0 + L_1_5_0 + y_LC_active_0 + y_dummy_0 <= 1
LC_Dum_L_UB_0_5_1: - L_0_5_1 + L_1_5_1 + y_LC_active_0 + y_dummy_0 <= 1
LC_Dum_L_UB_0_5_2: - L_0_5_2 + L_1_5_2 + y_LC_active_0 + y_dummy_0 <= 1
LC_Dum_L_UB_0_5_3: - L_0_5_3 + L_1_5_3 + y_LC_active_0 + y_dummy_0 <= 1
LC_Dum_L_UB_0_5_4: - L_0_5_4 + L_1_5_4 + y_LC_active_0 + y_dummy_0 <= 1
LC_Dum_L_UB_0_5_5: - L_0_5_5 + L_1_5_5 + y_LC_active_0 + y_dummy_0 <= 1
LC_Dum_L_UB_1_0_0: - L_1_0_0 + L_2_0_0 + y_LC_active_1 + y_dummy_1 <= 1
LC_Dum_L_UB_1_0_1: - L_1_0_1 + L_2_0_1 + y_LC_active_1 + y_dummy_1 <= 1
LC_Dum_L_UB_1_0_2: - L_1_0_2 + L_2_0_2 + y_LC_active_1 + y_dummy_1 <= 1
LC_Dum_L_UB_1_0_3: - L_1_0_3 + L_2_0_3 + y_LC_active_1 + y_dummy_1 <= 1
LC_Dum_L_UB_1_0_4: - L_1_0_4 + L_2_0_4 + y_LC_active_1 + y_dummy_1 <= 1
LC_Dum_L_UB_1_0_5: - L_1_0_5 + L_2_0_5 + y_LC_active_1 + y_dummy_1 <= 1
LC_Dum_L_UB_1_1_0: - L_1_1_0 + L_2_1_0 + y_LC_active_1 + y_dummy_1 <= 1
LC_Dum_L_UB_1_1_1: - L_1_1_1 + L_2_1_1 + y_LC_active_1 + y_dummy_1 <= 1
LC_Dum_L_UB_1_1_2: - L_1_1_2 + L_2_1_2 + y_LC_active_1 + y_dummy_1 <= 1
LC_Dum_L_UB_1_1_3: - L_1_1_3 + L_2_1_3 + y_LC_active_1 + y_dummy_1 <= 1
LC_Dum_L_UB_1_1_4: - L_1_1_4 + L_2_1_4 + y_LC_active_1 + y_dummy_1 <= 1
LC_Dum_L_UB_1_1_5: - L_1_1_5 + L_2_1_5 + y_LC_active_1 + y_dummy_1 <= 1
LC_Dum_L_UB_1_2_0: - L_1_2_0 + L_2_2_0 + y_LC_active_1 + y_dummy_1 <= 1
LC_Dum_L_UB_1_2_1: - L_1_2_1 + L_2_2_1 + y_LC_active_1 + y_dummy_1 <= 1
LC_Dum_L_UB_1_2_2: - L_1_2_2 + L_2_2_2 + y_LC_active_1 + y_dummy_1 <= 1
LC_Dum_L_UB_1_2_3: - L_1_2_3 + L_2_2_3 + y_LC_active_1 + y_dummy_1 <= 1
LC_Dum_L_UB_1_2_4: - L_1_2_4 + L_2_2_4 + y_LC_active_1 + y_dummy_1 <= 1
LC_Dum_L_UB_1_2_5: - L_1_2_5 + L_2_2_5 + y_LC_active_1 + y_dummy_1 <= 1
LC_Dum_L_UB_1_3_0: - L_1_3_0 + L_2_3_0 + y_LC_active_1 + y_dummy_1 <= 1
LC_Dum_L_UB_1_3_1: - L_1_3_1 + L_2_3_1 + y_LC_active_1 + y_dummy_1 <= 1
LC_Dum_L_UB_1_3_2: - L_1_3_2 + L_2_3_2 + y_LC_active_1 + y_dummy_1 <= 1
LC_Dum_L_UB_1_3_3: - L_1_3_3 + L_2_3_3 + y_LC_active_1 + y_dummy_1 <= 1
LC_Dum_L_UB_1_3_4: - L_1_3_4 + L_2_3_4 + y_LC_active_1 + y_dummy_1 <= 1
LC_Dum_L_UB_1_3_5: - L_1_3_5 + L_2_3_5 + y_LC_active_1 + y_dummy_1 <= 1
LC_Dum_L_UB_1_4_0: - L_1_4_0 + L_2_4_0 + y_LC_active_1 + y_dummy_1 <= 1
LC_Dum_L_UB_1_4_1: - L_1_4_1 + L_2_4_1 + y_LC_active_1 + y_dummy_1 <= 1
LC_Dum_L_UB_1_4_2: - L_1_4_2 + L_2_4_2 + y_LC_active_1 + y_dummy_1 <= 1
LC_Dum_L_UB_1_4_3: - L_1_4_3 + L_2_4_3 + y_LC_active_1 + y_dummy_1 <= 1
LC_Dum_L_UB_1_4_4: - L_1_4_4 + L_2_4_4 + y_LC_active_1 + y_dummy_1 <= 1
LC_Dum_L_UB_1_4_5: - L_1_4_5 + L_2_4_5 + y_LC_active_1 + y_dummy_1 <= 1
LC_Dum_L_UB_1_5_0: - L_1_5_0 + L_2_5_0 + y_LC_active_1 + y_dummy_1 <= 1
LC_Dum_L_UB_1_5_1: - L_1_5_1 + L_2_5_1 + y_LC_active_1 + y_dummy_1 <= 1
LC_Dum_L_UB_1_5_2: - L_1_5_2 + L_2_5_2 + y_LC_active_1 + y_dummy_1 <= 1
LC_Dum_L_UB_1_5_3: - L_1_5_3 + L_2_5_3 + y_LC_active_1 + y_dummy_1 <= 1
LC_Dum_L_UB_1_5_4: - L_1_5_4 + L_2_5_4 + y_LC_active_1 + y_dummy_1 <= 1
LC_Dum_L_UB_1_5_5: - L_1_5_5 + L_2_5_5 + y_LC_active_1 + y_dummy_1 <= 1
LC_Dum_L_UB_2_0_0: - L_2_0_0 + L_3_0_0 + y_LC_active_2 + y_dummy_2 <= 1
LC_Dum_L_UB_2_0_1: - L_2_0_1 + L_3_0_1 + y_LC_active_2 + y_dummy_2 <= 1
LC_Dum_L_UB_2_0_2: - L_2_0_2 + L_3_0_2 + y_LC_active_2 + y_dummy_2 <= 1
LC_Dum_L_UB_2_0_3: - L_2_0_3 + L_3_0_3 + y_LC_active_2 + y_dummy_2 <= 1
LC_Dum_L_UB_2_0_4: - L_2_0_4 + L_3_0_4 + y_LC_active_2 + y_dummy_2 <= 1
LC_Dum_L_UB_2_0_5: - L_2_0_5 + L_3_0_5 + y_LC_active_2 + y_dummy_2 <= 1
LC_Dum_L_UB_2_1_0: - L_2_1_0 + L_3_1_0 + y_LC_active_2 + y_dummy_2 <= 1
LC_Dum_L_UB_2_1_1: - L_2_1_1 + L_3_1_1 + y_LC_active_2 + y_dummy_2 <= 1
LC_Dum_L_UB_2_1_2: - L_2_1_2 + L_3_1_2 + y_LC_active_2 + y_dummy_2 <= 1
LC_Dum_L_UB_2_1_3: - L_2_1_3 + L_3_1_3 + y_LC_active_2 + y_dummy_2 <= 1
LC_Dum_L_UB_2_1_4: - L_2_1_4 + L_3_1_4 + y_LC_active_2 + y_dummy_2 <= 1
LC_Dum_L_UB_2_1_5: - L_2_1_5 + L_3_1_5 + y_LC_active_2 + y_dummy_2 <= 1
LC_Dum_L_UB_2_2_0: - L_2_2_0 + L_3_2_0 + y_LC_active_2 + y_dummy_2 <= 1
LC_Dum_L_UB_2_2_1: - L_2_2_1 + L_3_2_1 + y_LC_active_2 + y_dummy_2 <= 1
LC_Dum_L_UB_2_2_2: - L_2_2_2 + L_3_2_2 + y_LC_active_2 + y_dummy_2 <= 1
LC_Dum_L_UB_2_2_3: - L_2_2_3 + L_3_2_3 + y_LC_active_2 + y_dummy_2 <= 1
LC_Dum_L_UB_2_2_4: - L_2_2_4 + L_3_2_4 + y_LC_active_2 + y_dummy_2 <= 1
LC_Dum_L_UB_2_2_5: - L_2_2_5 + L_3_2_5 + y_LC_active_2 + y_dummy_2 <= 1
LC_Dum_L_UB_2_3_0: - L_2_3_0 + L_3_3_0 + y_LC_active_2 + y_dummy_2 <= 1
LC_Dum_L_UB_2_3_1: - L_2_3_1 + L_3_3_1 + y_LC_active_2 + y_dummy_2 <= 1
LC_Dum_L_UB_2_3_2: - L_2_3_2 + L_3_3_2 + y_LC_active_2 + y_dummy_2 <= 1
LC_Dum_L_UB_2_3_3: - L_2_3_3 + L_3_3_3 + y_LC_active_2 + y_dummy_2 <= 1
LC_Dum_L_UB_2_3_4: - L_2_3_4 + L_3_3_4 + y_LC_active_2 + y_dummy_2 <= 1
LC_Dum_L_UB_2_3_5: - L_2_3_5 + L_3_3_5 + y_LC_active_2 + y_dummy_2 <= 1
LC_Dum_L_UB_2_4_0: - L_2_4_0 + L_3_4_0 + y_LC_active_2 + y_dummy_2 <= 1
LC_Dum_L_UB_2_4_1: - L_2_4_1 + L_3_4_1 + y_LC_active_2 + y_dummy_2 <= 1
LC_Dum_L_UB_2_4_2: - L_2_4_2 + L_3_4_2 + y_LC_active_2 + y_dummy_2 <= 1
LC_Dum_L_UB_2_4_3: - L_2_4_3 + L_3_4_3 + y_LC_active_2 + y_dummy_2 <= 1
LC_Dum_L_UB_2_4_4: - L_2_4_4 + L_3_4_4 + y_LC_active_2 + y_dummy_2 <= 1
LC_Dum_L_UB_2_4_5: - L_2_4_5 + L_3_4_5 + y_LC_active_2 + y_dummy_2 <= 1
LC_Dum_L_UB_2_5_0: - L_2_5_0 + L_3_5_0 + y_LC_active_2 + y_dummy_2 <= 1
LC_Dum_L_UB_2_5_1: - L_2_5_1 + L_3_5_1 + y_LC_active_2 + y_dummy_2 <= 1
LC_Dum_L_UB_2_5_2: - L_2_5_2 + L_3_5_2 + y_LC_active_2 + y_dummy_2 <= 1
LC_Dum_L_UB_2_5_3: - L_2_5_3 + L_3_5_3 + y_LC_active_2 + y_dummy_2 <= 1
LC_Dum_L_UB_2_5_4: - L_2_5_4 + L_3_5_4 + y_LC_active_2 + y_dummy_2 <= 1
LC_Dum_L_UB_2_5_5: - L_2_5_5 + L_3_5_5 + y_LC_active_2 + y_dummy_2 <= 1
LC_Dum_L_UB_3_0_0: - L_3_0_0 + L_4_0_0 + y_LC_active_3 + y_dummy_3 <= 1
LC_Dum_L_UB_3_0_1: - L_3_0_1 + L_4_0_1 + y_LC_active_3 + y_dummy_3 <= 1
LC_Dum_L_UB_3_0_2: - L_3_0_2 + L_4_0_2 + y_LC_active_3 + y_dummy_3 <= 1
LC_Dum_L_UB_3_0_3: - L_3_0_3 + L_4_0_3 + y_LC_active_3 + y_dummy_3 <= 1
LC_Dum_L_UB_3_0_4: - L_3_0_4 + L_4_0_4 + y_LC_active_3 + y_dummy_3 <= 1
LC_Dum_L_UB_3_0_5: - L_3_0_5 + L_4_0_5 + y_LC_active_3 + y_dummy_3 <= 1
LC_Dum_L_UB_3_1_0: - L_3_1_0 + L_4_1_0 + y_LC_active_3 + y_dummy_3 <= 1
LC_Dum_L_UB_3_1_1: - L_3_1_1 + L_4_1_1 + y_LC_active_3 + y_dummy_3 <= 1
LC_Dum_L_UB_3_1_2: - L_3_1_2 + L_4_1_2 + y_LC_active_3 + y_dummy_3 <= 1
LC_Dum_L_UB_3_1_3: - L_3_1_3 + L_4_1_3 + y_LC_active_3 + y_dummy_3 <= 1
LC_Dum_L_UB_3_1_4: - L_3_1_4 + L_4_1_4 + y_LC_active_3 + y_dummy_3 <= 1
LC_Dum_L_UB_3_1_5: - L_3_1_5 + L_4_1_5 + y_LC_active_3 + y_dummy_3 <= 1
LC_Dum_L_UB_3_2_0: - L_3_2_0 + L_4_2_0 + y_LC_active_3 + y_dummy_3 <= 1
LC_Dum_L_UB_3_2_1: - L_3_2_1 + L_4_2_1 + y_LC_active_3 + y_dummy_3 <= 1
LC_Dum_L_UB_3_2_2: - L_3_2_2 + L_4_2_2 + y_LC_active_3 + y_dummy_3 <= 1
LC_Dum_L_UB_3_2_3: - L_3_2_3 + L_4_2_3 + y_LC_active_3 + y_dummy_3 <= 1
LC_Dum_L_UB_3_2_4: - L_3_2_4 + L_4_2_4 + y_LC_active_3 + y_dummy_3 <= 1
LC_Dum_L_UB_3_2_5: - L_3_2_5 + L_4_2_5 + y_LC_active_3 + y_dummy_3 <= 1
LC_Dum_L_UB_3_3_0: - L_3_3_0 + L_4_3_0 + y_LC_active_3 + y_dummy_3 <= 1
LC_Dum_L_UB_3_3_1: - L_3_3_1 + L_4_3_1 + y_LC_active_3 + y_dummy_3 <= 1
LC_Dum_L_UB_3_3_2: - L_3_3_2 + L_4_3_2 + y_LC_active_3 + y_dummy_3 <= 1
LC_Dum_L_UB_3_3_3: - L_3_3_3 + L_4_3_3 + y_LC_active_3 + y_dummy_3 <= 1
LC_Dum_L_UB_3_3_4: - L_3_3_4 + L_4_3_4 + y_LC_active_3 + y_dummy_3 <= 1
LC_Dum_L_UB_3_3_5: - L_3_3_5 + L_4_3_5 + y_LC_active_3 + y_dummy_3 <= 1
LC_Dum_L_UB_3_4_0: - L_3_4_0 + L_4_4_0 + y_LC_active_3 + y_dummy_3 <= 1
LC_Dum_L_UB_3_4_1: - L_3_4_1 + L_4_4_1 + y_LC_active_3 + y_dummy_3 <= 1
LC_Dum_L_UB_3_4_2: - L_3_4_2 + L_4_4_2 + y_LC_active_3 + y_dummy_3 <= 1
LC_Dum_L_UB_3_4_3: - L_3_4_3 + L_4_4_3 + y_LC_active_3 + y_dummy_3 <= 1
LC_Dum_L_UB_3_4_4: - L_3_4_4 + L_4_4_4 + y_LC_active_3 + y_dummy_3 <= 1
LC_Dum_L_UB_3_4_5: - L_3_4_5 + L_4_4_5 + y_LC_active_3 + y_dummy_3 <= 1
LC_Dum_L_UB_3_5_0: - L_3_5_0 + L_4_5_0 + y_LC_active_3 + y_dummy_3 <= 1
LC_Dum_L_UB_3_5_1: - L_3_5_1 + L_4_5_1 + y_LC_active_3 + y_dummy_3 <= 1
LC_Dum_L_UB_3_5_2: - L_3_5_2 + L_4_5_2 + y_LC_active_3 + y_dummy_3 <= 1
LC_Dum_L_UB_3_5_3: - L_3_5_3 + L_4_5_3 + y_LC_active_3 + y_dummy_3 <= 1
LC_Dum_L_UB_3_5_4: - L_3_5_4 + L_4_5_4 + y_LC_active_3 + y_dummy_3 <= 1
LC_Dum_L_UB_3_5_5: - L_3_5_5 + L_4_5_5 + y_LC_active_3 + y_dummy_3 <= 1
LC_IF_LB_0_0_1_2: - E_0_0_1 - E_0_0_2 + E_0_1_2 + E_1_1_2 - y_LC_0_0 >= -2
LC_IF_LB_0_0_1_3: - E_0_0_1 - E_0_0_3 + E_0_1_3 + E_1_1_3 - y_LC_0_0 >= -2
LC_IF_LB_0_0_1_4: - E_0_0_1 - E_0_0_4 + E_0_1_4 + E_1_1_4 - y_LC_0_0 >= -2
LC_IF_LB_0_0_1_5: - E_0_0_1 - E_0_0_5 + E_0_1_5 + E_1_1_5 - y_LC_0_0 >= -2
LC_IF_LB_0_0_2_3: - E_0_0_2 - E_0_0_3 + E_0_2_3 + E_1_2_3 - y_LC_0_0 >= -2
LC_IF_LB_0_0_2_4: - E_0_0_2 - E_0_0_4 + E_0_2_4 + E_1_2_4 - y_LC_0_0 >= -2
LC_IF_LB_0_0_2_5: - E_0_0_2 - E_0_0_5 + E_0_2_5 + E_1_2_5 - y_LC_0_0 >= -2
LC_IF_LB_0_0_3_4: - E_0_0_3 - E_0_0_4 + E_0_3_4 + E_1_3_4 - y_LC_0_0 >= -2
LC_IF_LB_0_0_3_5: - E_0_0_3 - E_0_0_5 + E_0_3_5 + E_1_3_5 - y_LC_0_0 >= -2
LC_IF_LB_0_0_4_5: - E_0_0_4 - E_0_0_5 + E_0_4_5 + E_1_4_5 - y_LC_0_0 >= -2
LC_IF_LB_0_1_0_2: - E_0_0_1 + E_0_0_2 - E_0_1_2 + E_1_0_2 - y_LC_0_1 >= -2
LC_IF_LB_0_1_0_3: - E_0_0_1 + E_0_0_3 - E_0_1_3 + E_1_0_3 - y_LC_0_1 >= -2
LC_IF_LB_0_1_0_4: - E_0_0_1 + E_0_0_4 - E_0_1_4 + E_1_0_4 - y_LC_0_1 >= -2
LC_IF_LB_0_1_0_5: - E_0_0_1 + E_0_0_5 - E_0_1_5 + E_1_0_5 - y_LC_0_1 >= -2
LC_IF_LB_0_1_2_3: - E_0_1_2 - E_0_1_3 + E_0_2_3 + E_1_2_3 - y_LC_0_1 >= -2
LC_IF_LB_0_1_2_4: - E_0_1_2 - E_0_1_4 + E_0_2_4 + E_1_2_4 - y_LC_0_1 >= -2
LC_IF_LB_0_1_2_5: - E_0_1_2 - E_0_1_5 + E_0_2_5 + E_1_2_5 - y_LC_0_1 >= -2
LC_IF_LB_0_1_3_4: - E_0_1_3 - E_0_1_4 + E_0_3_4 + E_1_3_4 - y_LC_0_1 >= -2
LC_IF_LB_0_1_3_5: - E_0_1_3 - E_0_1_5 + E_0_3_5 + E_1_3_5 - y_LC_0_1 >= -2
LC_IF_LB_0_1_4_5: - E_0_1_4 - E_0_1_5 + E_0_4_5 + E_1_4_5 - y_LC_0_1 >= -2
LC_IF_LB_0_2_0_1: E_0_0_1 - E_0_0_2 - E_0_1_2 + E_1_0_1 - y_LC_0_2 >= -2
LC_IF_LB_0_2_0_3: - E_0_0_2 + E_0_0_3 - E_0_2_3 + E_1_0_3 - y_LC_0_2 >= -2
LC_IF_LB_0_2_0_4: - E_0_0_2 + E_0_0_4 - E_0_2_4 + E_1_0_4 - y_LC_0_2 >= -2
LC_IF_LB_0_2_0_5: - E_0_0_2 + E_0_0_5 - E_0_2_5 + E_1_0_5 - y_LC_0_2 >= -2
LC_IF_LB_0_2_1_3: - E_0_1_2 + E_0_1_3 - E_0_2_3 + E_1_1_3 - y_LC_0_2 >= -2
LC_IF_LB_0_2_1_4: - E_0_1_2 + E_0_1_4 - E_0_2_4 + E_1_1_4 - y_LC_0_2 >= -2
LC_IF_LB_0_2_1_5: - E_0_1_2 + E_0_1_5 - E_0_2_5 + E_1_1_5 - y_LC_0_2 >= -2
LC_IF_LB_0_2_3_4: - E_0_2_3 - E_0_2_4 + E_0_3_4 + E_1_3_4 - y_LC_0_2 >= -2
LC_IF_LB_0_2_3_5: - E_0_2_3 - E_0_2_5 + E_0_3_5 + E_1_3_5 - y_LC_0_2 >= -2
LC_IF_LB_0_2_4_5: - E_0_2_4 - E_0_2_5 + E_0_4_5 + E_1_4_5 - y_LC_0_2 >= -2
LC_IF_LB_0_3_0_1: E_0_0_1 - E_0_0_3 - E_0_1_3 + E_1_0_1 - y_LC_0_3 >= -2
LC_IF_LB_0_3_0_2: E_0_0_2 - E_0_0_3 - E_0_2_3 + E_1_0_2 - y_LC_0_3 >= -2
LC_IF_LB_0_3_0_4: - E_0_0_3 + E_0_0_4 - E_0_3_4 + E_1_0_4 - y_LC_0_3 >= -2
LC_IF_LB_0_3_0_5: - E_0_0_3 + E_0_0_5 - E_0_3_5 + E_1_0_5 - y_LC_0_3 >= -2
LC_IF_LB_0_3_1_2: E_0_1_2 - E_0_1_3 - E_0_2_3 + E_1_1_2 - y_LC_0_3 >= -2
LC_IF_LB_0_3_1_4: - E_0_1_3 + E_0_1_4 - E_0_3_4 + E_1_1_4 - y_LC_0_3 >= -2
LC_IF_LB_0_3_1_5: - E_0_1_3 + E_0_1_5 - E_0_3_5 + E_1_1_5 - y_LC_0_3 >= -2
LC_IF_LB_0_3_2_4: - E_0_2_3 + E_0_2_4 - E_0_3_4 + E_1_2_4 - y_LC_0_3 >= -2
LC_IF_LB_0_3_2_5: - E_0_2_3 + E_0_2_5 - E_0_3_5 + E_1_2_5 - y_LC_0_3 >= -2
LC_IF_LB_0_3_4_5: - E_0_3_4 - E_0_3_5 + E_0_4_5 + E_1_4_5 - y_LC_0_3 >= -2
LC_IF_LB_0_4_0_1: E_0_0_1 - E_0_0_4 - E_0_1_4 + E_1_0_1 - y_LC_0_4 >= -2
LC_IF_LB_0_4_0_2: E_0_0_2 - E_0_0_4 - E_0_2_4 + E_1_0_2 - y_LC_0_4 >= -2
LC_IF_LB_0_4_0_3: E_0_0_3 - E_0_0_4 - E_0_3_4 + E_1_0_3 - y_LC_0_4 >= -2
LC_IF_LB_0_4_0_5: - E_0_0_4 + E_0_0_5 - E_0_4_5 + E_1_0_5 - y_LC_0_4 >= -2
LC_IF_LB_0_4_1_2: E_0_1_2 - E_0_1_4 - E_0_2_4 + E_1_1_2 - y_LC_0_4 >= -2
LC_IF_LB_0_4_1_3: E_0_1_3 - E_0_1_4 - E_0_3_4 + E_1_1_3 - y_LC_0_4 >= -2
LC_IF_LB_0_4_1_5: - E_0_1_4 + E_0_1_5 - E_0_4_5 + E_1_1_5 - y_LC_0_4 >= -2
LC_IF_LB_0_4_2_3: E_0_2_3 - E_0_2_4 - E_0_3_4 + E_1_2_3 - y_LC_0_4 >= -2
LC_IF_LB_0_4_2_5: - E_0_2_4 + E_0_2_5 - E_0_4_5 + E_1_2_5 - y_LC_0_4 >= -2
LC_IF_LB_0_4_3_5: - E_0_3_4 + E_0_3_5 - E_0_4_5 + E_1_3_5 - y_LC_0_4 >= -2
LC_IF_LB_0_5_0_1: E_0_0_1 - E_0_0_5 - E_0_1_5 + E_1_0_1 - y_LC_0_5 >= -2
LC_IF_LB_0_5_0_2: E_0_0_2 - E_0_0_5 - E_0_2_5 + E_1_0_2 - y_LC_0_5 >= -2
LC_IF_LB_0_5_0_3: E_0_0_3 - E_0_0_5 - E_0_3_5 + E_1_0_3 - y_LC_0_5 >= -2
LC_IF_LB_0_5_0_4: E_0_0_4 - E_0_0_5 - E_0_4_5 + E_1_0_4 - y_LC_0_5 >= -2
LC_IF_LB_0_5_1_2: E_0_1_2 - E_0_1_5 - E_0_2_5 + E_1_1_2 - y_LC_0_5 >= -2
LC_IF_LB_0_5_1_3: E_0_1_3 - E_0_1_5 - E_0_3_5 + E_1_1_3 - y_LC_0_5 >= -2
LC_IF_LB_0_5_1_4: E_0_1_4 - E_0_1_5 - E_0_4_5 + E_1_1_4 - y_LC_0_5 >= -2
LC_IF_LB_0_5_2_3: E_0_2_3 - E_0_2_5 - E_0_3_5 + E_1_2_3 - y_LC_0_5 >= -2
LC_IF_LB_0_5_2_4: E_0_2_4 - E_0_2_5 - E_0_4_5 + E_1_2_4 - y_LC_0_5 >= -2
LC_IF_LB_0_5_3_4: E_0_3_4 - E_0_3_5 - E_0_4_5 + E_1_3_4 - y_LC_0_5 >= -2
LC_IF_LB_1_0_1_2: - E_1_0_1 - E_1_0_2 + E_1_1_2 + E_2_1_2 - y_LC_1_0 >= -2
LC_IF_LB_1_0_1_3: - E_1_0_1 - E_1_0_3 + E_1_1_3 + E_2_1_3 - y_LC_1_0 >= -2
LC_IF_LB_1_0_1_4: - E_1_0_1 - E_1_0_4 + E_1_1_4 + E_2_1_4 - y_LC_1_0 >= -2
LC_IF_LB_1_0_1_5: - E_1_0_1 - E_1_0_5 + E_1_1_5 + E_2_1_5 - y_LC_1_0 >= -2
LC_IF_LB_1_0_2_3: - E_1_0_2 - E_1_0_3 + E_1_2_3 + E_2_2_3 - y_LC_1_0 >= -2
LC_IF_LB_1_0_2_4: - E_1_0_2 - E_1_0_4 + E_1_2_4 + E_2_2_4 - y_LC_1_0 >= -2
LC_IF_LB_1_0_2_5: - E_1_0_2 - E_1_0_5 + E_1_2_5 + E_2_2_5 - y_LC_1_0 >= -2
LC_IF_LB_1_0_3_4: - E_1_0_3 - E_1_0_4 + E_1_3_4 + E_2_3_4 - y_LC_1_0 >= -2
LC_IF_LB_1_0_3_5: - E_1_0_3 - E_1_0_5 + E_1_3_5 + E_2_3_5 - y_LC_1_0 >= -2
LC_IF_LB_1_0_4_5: - E_1_0_4 - E_1_0_5 + E_1_4_5 + E_2_4_5 - y_LC_1_0 >= -2
LC_IF_LB_1_1_0_2: - E_1_0_1 + E_1_0_2 - E_1_1_2 + E_2_0_2 - y_LC_1_1 >= -2
LC_IF_LB_1_1_0_3: - E_1_0_1 + E_1_0_3 - E_1_1_3 + E_2_0_3 - y_LC_1_1 >= -2
LC_IF_LB_1_1_0_4: - E_1_0_1 + E_1_0_4 - E_1_1_4 + E_2_0_4 - y_LC_1_1 >= -2
LC_IF_LB_1_1_0_5: - E_1_0_1 + E_1_0_5 - E_1_1_5 + E_2_0_5 - y_LC_1_1 >= -2
LC_IF_LB_1_1_2_3: - E_1_1_2 - E_1_1_3 + E_1_2_3 + E_2_2_3 - y_LC_1_1 >= -2
LC_IF_LB_1_1_2_4: - E_1_1_2 - E_1_1_4 + E_1_2_4 + E_2_2_4 - y_LC_1_1 >= -2
LC_IF_LB_1_1_2_5: - E_1_1_2 - E_1_1_5 + E_1_2_5 + E_2_2_5 - y_LC_1_1 >= -2
LC_IF_LB_1_1_3_4: - E_1_1_3 - E_1_1_4 + E_1_3_4 + E_2_3_4 - y_LC_1_1 >= -2
LC_IF_LB_1_1_3_5: - E_1_1_3 - E_1_1_5 + E_1_3_5 + E_2_3_5 - y_LC_1_1 >= -2
LC_IF_LB_1_1_4_5: - E_1_1_4 - E_1_1_5 + E_1_4_5 + E_2_4_5 - y_LC_1_1 >= -2
LC_IF_LB_1_2_0_1: E_1_0_1 - E_1_0_2 - E_1_1_2 + E_2_0_1 - y_LC_1_2 >= -2
LC_IF_LB_1_2_0_3: - E_1_0_2 + E_1_0_3 - E_1_2_3 + E_2_0_3 - y_LC_1_2 >= -2
LC_IF_LB_1_2_0_4: - E_1_0_2 + E_1_0_4 - E_1_2_4 + E_2_0_4 - y_LC_1_2 >= -2
LC_IF_LB_1_2_0_5: - E_1_0_2 + E_1_0_5 - E_1_2_5 + E_2_0_5 - y_LC_1_2 >= -2
LC_IF_LB_1_2_1_3: - E_1_1_2 + E_1_1_3 - E_1_2_3 + E_2_1_3 - y_LC_1_2 >= -2
LC_IF_LB_1_2_1_4: - E_1_1_2 + E_1_1_4 - E_1_2_4 + E_2_1_4 - y_LC_1_2 >= -2
LC_IF_LB_1_2_1_5: - E_1_1_2 + E_1_1_5 - E_1_2_5 + E_2_1_5 - y_LC_1_2 >= -2
LC_IF_LB_1_2_3_4: - E_1_2_3 - E_1_2_4 + E_1_3_4 + E_2_3_4 - y_LC_1_2 >= -2
LC_IF_LB_1_2_3_5: - E_1_2_3 - E_1_2_5 + E_1_3_5 + E_2_3_5 - y_LC_1_2 >= -2
LC_IF_LB_1_2_4_5: - E_1_2_4 - E_1_2_5 + E_1_4_5 + E_2_4_5 - y_LC_1_2 >= -2
LC_IF_LB_1_3_0_1: E_1_0_1 - E_1_0_3 - E_1_1_3 + E_2_0_1 - y_LC_1_3 >= -2
LC_IF_LB_1_3_0_2: E_1_0_2 - E_1_0_3 - E_1_2_3 + E_2_0_2 - y_LC_1_3 >= -2
LC_IF_LB_1_3_0_4: - E_1_0_3 + E_1_0_4 - E_1_3_4 + E_2_0_4 - y_LC_1_3 >= -2
LC_IF_LB_1_3_0_5: - E_1_0_3 + E_1_0_5 - E_1_3_5 + E_2_0_5 - y_LC_1_3 >= -2
LC_IF_LB_1_3_1_2: E_1_1_2 - E_1_1_3 - E_1_2_3 + E_2_1_2 - y_LC_1_3 >= -2
LC_IF_LB_1_3_1_4: - E_1_1_3 + E_1_1_4 - E_1_3_4 + E_2_1_4 - y_LC_1_3 >= -2
LC_IF_LB_1_3_1_5: - E_1_1_3 + E_1_1_5 - E_1_3_5 + E_2_1_5 - y_LC_1_3 >= -2
LC_IF_LB_1_3_2_4: - E_1_2_3 + E_1_2_4 - E_1_3_4 + E_2_2_4 - y_LC_1_3 >= -2
LC_IF_LB_1_3_2_5: - E_1_2_3 + E_1_2_5 - E_1_3_5 + E_2_2_5 - y_LC_1_3 >= -2
LC_IF_LB_1_3_4_5: - E_1_3_4 - E_1_3_5 + E_1_4_5 + E_2_4_5 - y_LC_1_3 >= -2
LC_IF_LB_1_4_0_1: E_1_0_1 - E_1_0_4 - E_1_1_4 + E_2_0_1 - y_LC_1_4 >= -2
LC_IF_LB_1_4_0_2: E_1_0_2 - E_1_0_4 - E_1_2_4 + E_2_0_2 - y_LC_1_4 >= -2
LC_IF_LB_1_4_0_3: E_1_0_3 - E_1_0_4 - E_1_3_4 + E_2_0_3 - y_LC_1_4 >= -2
LC_IF_LB_1_4_0_5: - E_1_0_4 + E_1_0_5 - E_1_4_5 + E_2_0_5 - y_LC_1_4 >= -2
LC_IF_LB_1_4_1_2: E_1_1_2 - E_1_1_4 - E_1_2_4 + E_2_1_2 - y_LC_1_4 >= -2
LC_IF_LB_1_4_1_3: E_1_1_3 - E_1_1_4 - E_1_3_4 + E_2_1_3 - y_LC_1_4 >= -2
LC_IF_LB_1_4_1_5: - E_1_1_4 + E_1_1_5 - E_1_4_5 + E_2_1_5 - y_LC_1_4 >= -2
LC_IF_LB_1_4_2_3: E_1_2_3 - E_1_2_4 - E_1_3_4 + E_2_2_3 - y_LC_1_4 >= -2
LC_IF_LB_1_4_2_5: - E_1_2_4 + E_1_2_5 - E_1_4_5 + E_2_2_5 - y_LC_1_4 >= -2
LC_IF_LB_1_4_3_5: - E_1_3_4 + E_1_3_5 - E_1_4_5 + E_2_3_5 - y_LC_1_4 >= -2
LC_IF_LB_1_5_0_1: E_1_0_1 - E_1_0_5 - E_1_1_5 + E_2_0_1 - y_LC_1_5 >= -2
LC_IF_LB_1_5_0_2: E_1_0_2 - E_1_0_5 - E_1_2_5 + E_2_0_2 - y_LC_1_5 >= -2
LC_IF_LB_1_5_0_3: E_1_0_3 - E_1_0_5 - E_1_3_5 + E_2_0_3 - y_LC_1_5 >= -2
LC_IF_LB_1_5_0_4: E_1_0_4 - E_1_0_5 - E_1_4_5 + E_2_0_4 - y_LC_1_5 >= -2
LC_IF_LB_1_5_1_2: E_1_1_2 - E_1_1_5 - E_1_2_5 + E_2_1_2 - y_LC_1_5 >= -2
LC_IF_LB_1_5_1_3: E_1_1_3 - E_1_1_5 - E_1_3_5 + E_2_1_3 - y_LC_1_5 >= -2
LC_IF_LB_1_5_1_4: E_1_1_4 - E_1_1_5 - E_1_4_5 + E_2_1_4 - y_LC_1_5 >= -2
LC_IF_LB_1_5_2_3: E_1_2_3 - E_1_2_5 - E_1_3_5 + E_2_2_3 - y_LC_1_5 >= -2
LC_IF_LB_1_5_2_4: E_1_2_4 - E_1_2_5 - E_1_4_5 + E_2_2_4 - y_LC_1_5 >= -2
LC_IF_LB_1_5_3_4: E_1_3_4 - E_1_3_5 - E_1_4_5 + E_2_3_4 - y_LC_1_5 >= -2
LC_IF_LB_2_0_1_2: - E_2_0_1 - E_2_0_2 + E_2_1_2 + E_3_1_2 - y_LC_2_0 >= -2
LC_IF_LB_2_0_1_3: - E_2_0_1 - E_2_0_3 + E_2_1_3 + E_3_1_3 - y_LC_2_0 >= -2
LC_IF_LB_2_0_1_4: - E_2_0_1 - E_2_0_4 + E_2_1_4 + E_3_1_4 - y_LC_2_0 >= -2
LC_IF_LB_2_0_1_5: - E_2_0_1 - E_2_0_5 + E_2_1_5 + E_3_1_5 - y_LC_2_0 >= -2
LC_IF_LB_2_0_2_3: - E_2_0_2 - E_2_0_3 + E_2_2_3 + E_3_2_3 - y_LC_2_0 >= -2
LC_IF_LB_2_0_2_4: - E_2_0_2 - E_2_0_4 + E_2_2_4 + E_3_2_4 - y_LC_2_0 >= -2
LC_IF_LB_2_0_2_5: - E_2_0_2 - E_2_0_5 + E_2_2_5 + E_3_2_5 - y_LC_2_0 >= -2
LC_IF_LB_2_0_3_4: - E_2_0_3 - E_2_0_4 + E_2_3_4 + E_3_3_4 - y_LC_2_0 >= -2
LC_IF_LB_2_0_3_5: - E_2_0_3 - E_2_0_5 + E_2_3_5 + E_3_3_5 - y_LC_2_0 >= -2
LC_IF_LB_2_0_4_5: - E_2_0_4 - E_2_0_5 + E_2_4_5 + E_3_4_5 - y_LC_2_0 >= -2
LC_IF_LB_2_1_0_2: - E_2_0_1 + E_2_0_2 - E_2_1_2 + E_3_0_2 - y_LC_2_1 >= -2
LC_IF_LB_2_1_0_3: - E_2_0_1 + E_2_0_3 - E_2_1_3 + E_3_0_3 - y_LC_2_1 >= -2
LC_IF_LB_2_1_0_4: - E_2_0_1 + E_2_0_4 - E_2_1_4 + E_3_0_4 - y_LC_2_1 >= -2
LC_IF_LB_2_1_0_5: - E_2_0_1 + E_2_0_5 - E_2_1_5 + E_3_0_5 - y_LC_2_1 >= -2
LC_IF_LB_2_1_2_3: - E_2_1_2 - E_2_1_3 + E_2_2_3 + E_3_2_3 - y_LC_2_1 >= -2
LC_IF_LB_2_1_2_4: - E_2_1_2 - E_2_1_4 + E_2_2_4 + E_3_2_4 - y_LC_2_1 >= -2
LC_IF_LB_2_1_2_5: - E_2_1_2 - E_2_1_5 + E_2_2_5 + E_3_2_5 - y_LC_2_1 >= -2
LC_IF_LB_2_1_3_4: - E_2_1_3 - E_2_1_4 + E_2_3_4 + E_3_3_4 - y_LC_2_1 >= -2
LC_IF_LB_2_1_3_5: - E_2_1_3 - E_2_1_5 + E_2_3_5 + E_3_3_5 - y_LC_2_1 >= -2
LC_IF_LB_2_1_4_5: - E_2_1_4 - E_2_1_5 + E_2_4_5 + E_3_4_5 - y_LC_2_1 >= -2
LC_IF_LB_2_2_0_1: E_2_0_1 - E_2_0_2 - E_2_1_2 + E_3_0_1 - y_LC_2_2 >= -2
LC_IF_LB_2_2_0_3: - E_2_0_2 + E_2_0_3 - E_2_2_3 + E_3_0_3 - y_LC_2_2 >= -2
LC_IF_LB_2_2_0_4: - E_2_0_2 + E_2_0_4 - E_2_2_4 + E_3_0_4 - y_LC_2_2 >= -2
LC_IF_LB_2_2_0_5: - E_2_0_2 + E_2_0_5 - E_2_2_5 + E_3_0_5 - y_LC_2_2 >= -2
LC_IF_LB_2_2_1_3: - E_2_1_2 + E_2_1_3 - E_2_2_3 + E_3_1_3 - y_LC_2_2 >= -2
LC_IF_LB_2_2_1_4: - E_2_1_2 + E_2_1_4 - E_2_2_4 + E_3_1_4 - y_LC_2_2 >= -2
LC_IF_LB_2_2_1_5: - E_2_1_2 + E_2_1_5 - E_2_2_5 + E_3_1_5 - y_LC_2_2 >= -2
LC_IF_LB_2_2_3_4: - E_2_2_3 - E_2_2_4 + E_2_3_4 + E_3_3_4 - y_LC_2_2 >= -2
LC_IF_LB_2_2_3_5: - E_2_2_3 - E_2_2_5 + E_2_3_5 + E_3_3_5 - y_LC_2_2 >= -2
LC_IF_LB_2_2_4_5: - E_2_2_4 - E_2_2_5 + E_2_4_5 + E_3_4_5 - y_LC_2_2 >= -2
LC_IF_LB_2_3_0_1: E_2_0_1 - E_2_0_3 - E_2_1_3 + E_3_0_1 - y_LC_2_3 >= -2
LC_IF_LB_2_3_0_2: E_2_0_2 - E_2_0_3 - E_2_2_3 + E_3_0_2 - y_LC_2_3 >= -2
LC_IF_LB_2_3_0_4: - E_2_0_3 + E_2_0_4 - E_2_3_4 + E_3_0_4 - y_LC_2_3 >= -2
LC_IF_LB_2_3_0_5: - E_2_0_3 + E_2_0_5 - E_2_3_5 + E_3_0_5 - y_LC_2_3 >= -2
LC_IF_LB_2_3_1_2: E_2_1_2 - E_2_1_3 - E_2_2_3 + E_3_1_2 - y_LC_2_3 >= -2
LC_IF_LB_2_3_1_4: - E_2_1_3 + E_2_1_4 - E_2_3_4 + E_3_1_4 - y_LC_2_3 >= -2
LC_IF_LB_2_3_1_5: - E_2_1_3 + E_2_1_5 - E_2_3_5 + E_3_1_5 - y_LC_2_3 >= -2
LC_IF_LB_2_3_2_4: - E_2_2_3 + E_2_2_4 - E_2_3_4 + E_3_2_4 - y_LC_2_3 >= -2
LC_IF_LB_2_3_2_5: - E_2_2_3 + E_2_2_5 - E_2_3_5 + E_3_2_5 - y_LC_2_3 >= -2
LC_IF_LB_2_3_4_5: - E_2_3_4 - E_2_3_5 + E_2_4_5 + E_3_4_5 - y_LC_2_3 >= -2
LC_IF_LB_2_4_0_1: E_2_0_1 - E_2_0_4 - E_2_1_4 + E_3_0_1 - y_LC_2_4 >= -2
LC_IF_LB_2_4_0_2: E_2_0_2 - E_2_0_4 - E_2_2_4 + E_3_0_2 - y_LC_2_4 >= -2
LC_IF_LB_2_4_0_3: E_2_0_3 - E_2_0_4 - E_2_3_4 + E_3_0_3 - y_LC_2_4 >= -2
LC_IF_LB_2_4_0_5: - E_2_0_4 + E_2_0_5 - E_2_4_5 + E_3_0_5 - y_LC_2_4 >= -2
LC_IF_LB_2_4_1_2: E_2_1_2 - E_2_1_4 - E_2_2_4 + E_3_1_2 - y_LC_2_4 >= -2
LC_IF_LB_2_4_1_3: E_2_1_3 - E_2_1_4 - E_2_3_4 + E_3_1_3 - y_LC_2_4 >= -2
LC_IF_LB_2_4_1_5: - E_2_1_4 + E_2_1_5 - E_2_4_5 + E_3_1_5 - y_LC_2_4 >= -2
LC_IF_LB_2_4_2_3: E_2_2_3 - E_2_2_4 - E_2_3_4 + E_3_2_3 - y_LC_2_4 >= -2
LC_IF_LB_2_4_2_5: - E_2_2_4 + E_2_2_5 - E_2_4_5 + E_3_2_5 - y_LC_2_4 >= -2
LC_IF_LB_2_4_3_5: - E_2_3_4 + E_2_3_5 - E_2_4_5 + E_3_3_5 - y_LC_2_4 >= -2
LC_IF_LB_2_5_0_1: E_2_0_1 - E_2_0_5 - E_2_1_5 + E_3_0_1 - y_LC_2_5 >= -2
LC_IF_LB_2_5_0_2: E_2_0_2 - E_2_0_5 - E_2_2_5 + E_3_0_2 - y_LC_2_5 >= -2
LC_IF_LB_2_5_0_3: E_2_0_3 - E_2_0_5 - E_2_3_5 + E_3_0_3 - y_LC_2_5 >= -2
LC_IF_LB_2_5_0_4: E_2_0_4 - E_2_0_5 - E_2_4_5 + E_3_0_4 - y_LC_2_5 >= -2
LC_IF_LB_2_5_1_2: E_2_1_2 - E_2_1_5 - E_2_2_5 + E_3_1_2 - y_LC_2_5 >= -2
LC_IF_LB_2_5_1_3: E_2_1_3 - E_2_1_5 - E_2_3_5 + E_3_1_3 - y_LC_2_5 >= -2
LC_IF_LB_2_5_1_4: E_2_1_4 - E_2_1_5 - E_2_4_5 + E_3_1_4 - y_LC_2_5 >= -2
LC_IF_LB_2_5_2_3: E_2_2_3 - E_2_2_5 - E_2_3_5 + E_3_2_3 - y_LC_2_5 >= -2
LC_IF_LB_2_5_2_4: E_2_2_4 - E_2_2_5 - E_2_4_5 + E_3_2_4 - y_LC_2_5 >= -2
LC_IF_LB_2_5_3_4: E_2_3_4 - E_2_3_5 - E_2_4_5 + E_3_3_4 - y_LC_2_5 >= -2
LC_IF_LB_3_0_1_2: - E_3_0_1 - E_3_0_2 + E_3_1_2 + E_4_1_2 - y_LC_3_0 >= -2
LC_IF_LB_3_0_1_3: - E_3_0_1 - E_3_0_3 + E_3_1_3 + E_4_1_3 - y_LC_3_0 >= -2
LC_IF_LB_3_0_1_4: - E_3_0_1 - E_3_0_4 + E_3_1_4 + E_4_1_4 - y_LC_3_0 >= -2
LC_IF_LB_3_0_1_5: - E_3_0_1 - E_3_0_5 + E_3_1_5 + E_4_1_5 - y_LC_3_0 >= -2
LC_IF_LB_3_0_2_3: - E_3_0_2 - E_3_0_3 + E_3_2_3 + E_4_2_3 - y_LC_3_0 >= -2
LC_IF_LB_3_0_2_4: - E_3_0_2 - E_3_0_4 + E_3_2_4 + E_4_2_4 - y_LC_3_0 >= -2
LC_IF_LB_3_0_2_5: - E_3_0_2 - E_3_0_5 + E_3_2_5 + E_4_2_5 - y_LC_3_0 >= -2
LC_IF_LB_3_0_3_4: - E_3_0_3 - E_3_0_4 + E_3_3_4 + E_4_3_4 - y_LC_3_0 >= -2
LC_IF_LB_3_0_3_5: - E_3_0_3 - E_3_0_5 + E_3_3_5 + E_4_3_5 - y_LC_3_0 >= -2
LC_IF_LB_3_0_4_5: - E_3_0_4 - E_3_0_5 + E_3_4_5 + E_4_4_5 - y_LC_3_0 >= -2
LC_IF_LB_3_1_0_2: - E_3_0_1 + E_3_0_2 - E_3_1_2 + E_4_0_2 - y_LC_3_1 >= -2
LC_IF_LB_3_1_0_3: - E_3_0_1 + E_3_0_3 - E_3_1_3 + E_4_0_3 - y_LC_3_1 >= -2
LC_IF_LB_3_1_0_4: - E_3_0_1 + E_3_0_4 - E_3_1_4 + E_4_0_4 - y_LC_3_1 >= -2
LC_IF_LB_3_1_0_5: - E_3_0_1 + E_3_0_5 - E_3_1_5 + E_4_0_5 - y_LC_3_1 >= -2
LC_IF_LB_3_1_2_3: - E_3_1_2 - E_3_1_3 + E_3_2_3 + E_4_2_3 - y_LC_3_1 >= -2
LC_IF_LB_3_1_2_4: - E_3_1_2 - E_3_1_4 + E_3_2_4 + E_4_2_4 - y_LC_3_1 >= -2
LC_IF_LB_3_1_2_5: - E_3_1_2 - E_3_1_5 + E_3_2_5 + E_4_2_5 - y_LC_3_1 >= -2
LC_IF_LB_3_1_3_4: - E_3_1_3 - E_3_1_4 + E_3_3_4 + E_4_3_4 - y_LC_3_1 >= -2
LC_IF_LB_3_1_3_5: - E_3_1_3 - E_3_1_5 + E_3_3_5 + E_4_3_5 - y_LC_3_1 >= -2
LC_IF_LB_3_1_4_5: - E_3_1_4 - E_3_1_5 + E_3_4_5 + E_4_4_5 - y_LC_3_1 >= -2
LC_IF_LB_3_2_0_1: E_3_0_1 - E_3_0_2 - E_3_1_2 + E_4_0_1 - y_LC_3_2 >= -2
LC_IF_LB_3_2_0_3: - E_3_0_2 + E_3_0_3 - E_3_2_3 + E_4_0_3 - y_LC_3_2 >= -2
LC_IF_LB_3_2_0_4: - E_3_0_2 + E_3_0_4 - E_3_2_4 + E_4_0_4 - y_LC_3_2 >= -2
LC_IF_LB_3_2_0_5: - E_3_0_2 + E_3_0_5 - E_3_2_5 + E_4_0_5 - y_LC_3_2 >= -2
LC_IF_LB_3_2_1_3: - E_3_1_2 + E_3_1_3 - E_3_2_3 + E_4_1_3 - y_LC_3_2 >= -2
LC_IF_LB_3_2_1_4: - E_3_1_2 + E_3_1_4 - E_3_2_4 + E_4_1_4 - y_LC_3_2 >= -2
LC_IF_LB_3_2_1_5: - E_3_1_2 + E_3_1_5 - E_3_2_5 + E_4_1_5 - y_LC_3_2 >= -2
LC_IF_LB_3_2_3_4: - E_3_2_3 - E_3_2_4 + E_3_3_4 + E_4_3_4 - y_LC_3_2 >= -2
LC_IF_LB_3_2_3_5: - E_3_2_3 - E_3_2_5 + E_3_3_5 + E_4_3_5 - y_LC_3_2 >= -2
LC_IF_LB_3_2_4_5: - E_3_2_4 - E_3_2_5 + E_3_4_5 + E_4_4_5 - y_LC_3_2 >= -2
LC_IF_LB_3_3_0_1: E_3_0_1 - E_3_0_3 - E_3_1_3 + E_4_0_1 - y_LC_3_3 >= -2
LC_IF_LB_3_3_0_2: E_3_0_2 - E_3_0_3 - E_3_2_3 + E_4_0_2 - y_LC_3_3 >= -2
LC_IF_LB_3_3_0_4: - E_3_0_3 + E_3_0_4 - E_3_3_4 + E_4_0_4 - y_LC_3_3 >= -2
LC_IF_LB_3_3_0_5: - E_3_0_3 + E_3_0_5 - E_3_3_5 + E_4_0_5 - y_LC_3_3 >= -2
LC_IF_LB_3_3_1_2: E_3_1_2 - E_3_1_3 - E_3_2_3 + E_4_1_2 - y_LC_3_3 >= -2
LC_IF_LB_3_3_1_4: - E_3_1_3 + E_3_1_4 - E_3_3_4 + E_4_1_4 - y_LC_3_3 >= -2
LC_IF_LB_3_3_1_5: - E_3_1_3 + E_3_1_5 - E_3_3_5 + E_4_1_5 - y_LC_3_3 >= -2
LC_IF_LB_3_3_2_4: - E_3_2_3 + E_3_2_4 - E_3_3_4 + E_4_2_4 - y_LC_3_3 >= -2
LC_IF_LB_3_3_2_5: - E_3_2_3 + E_3_2_5 - E_3_3_5 + E_4_2_5 - y_LC_3_3 >= -2
LC_IF_LB_3_3_4_5: - E_3_3_4 - E_3_3_5 + E_3_4_5 + E_4_4_5 - y_LC_3_3 >= -2
LC_IF_LB_3_4_0_1: E_3_0_1 - E_3_0_4 - E_3_1_4 + E_4_0_1 - y_LC_3_4 >= -2
LC_IF_LB_3_4_0_2: E_3_0_2 - E_3_0_4 - E_3_2_4 + E_4_0_2 - y_LC_3_4 >= -2
LC_IF_LB_3_4_0_3: E_3_0_3 - E_3_0_4 - E_3_3_4 + E_4_0_3 - y_LC_3_4 >= -2
LC_IF_LB_3_4_0_5: - E_3_0_4 + E_3_0_5 - E_3_4_5 + E_4_0_5 - y_LC_3_4 >= -2
LC_IF_LB_3_4_1_2: E_3_1_2 - E_3_1_4 - E_3_2_4 + E_4_1_2 - y_LC_3_4 >= -2
LC_IF_LB_3_4_1_3: E_3_1_3 - E_3_1_4 - E_3_3_4 + E_4_1_3 - y_LC_3_4 >= -2
LC_IF_LB_3_4_1_5: - E_3_1_4 + E_3_1_5 - E_3_4_5 + E_4_1_5 - y_LC_3_4 >= -2
LC_IF_LB_3_4_2_3: E_3_2_3 - E_3_2_4 - E_3_3_4 + E_4_2_3 - y_LC_3_4 >= -2
LC_IF_LB_3_4_2_5: - E_3_2_4 + E_3_2_5 - E_3_4_5 + E_4_2_5 - y_LC_3_4 >= -2
LC_IF_LB_3_4_3_5: - E_3_3_4 + E_3_3_5 - E_3_4_5 + E_4_3_5 - y_LC_3_4 >= -2
LC_IF_LB_3_5_0_1: E_3_0_1 - E_3_0_5 - E_3_1_5 + E_4_0_1 - y_LC_3_5 >= -2
LC_IF_LB_3_5_0_2: E_3_0_2 - E_3_0_5 - E_3_2_5 + E_4_0_2 - y_LC_3_5 >= -2
LC_IF_LB_3_5_0_3: E_3_0_3 - E_3_0_5 - E_3_3_5 + E_4_0_3 - y_LC_3_5 >= -2
LC_IF_LB_3_5_0_4: E_3_0_4 - E_3_0_5 - E_3_4_5 + E_4_0_4 - y_LC_3_5 >= -2
LC_IF_LB_3_5_1_2: E_3_1_2 - E_3_1_5 - E_3_2_5 + E_4_1_2 - y_LC_3_5 >= -2
LC_IF_LB_3_5_1_3: E_3_1_3 - E_3_1_5 - E_3_3_5 + E_4_1_3 - y_LC_3_5 >= -2
LC_IF_LB_3_5_1_4: E_3_1_4 - E_3_1_5 - E_3_4_5 + E_4_1_4 - y_LC_3_5 >= -2
LC_IF_LB_3_5_2_3: E_3_2_3 - E_3_2_5 - E_3_3_5 + E_4_2_3 - y_LC_3_5 >= -2
LC_IF_LB_3_5_2_4: E_3_2_4 - E_3_2_5 - E_3_4_5 + E_4_2_4 - y_LC_3_5 >= -2
LC_IF_LB_3_5_3_4: E_3_3_4 - E_3_3_5 - E_3_4_5 + E_4_3_4 - y_LC_3_5 >= -2
LC_IF_UB_0_0_1_2: E_0_0_1 + E_0_0_2 + E_0_1_2 + E_1_1_2 + y_LC_0_0 <= 4
LC_IF_UB_0_0_1_3: E_0_0_1 + E_0_0_3 + E_0_1_3 + E_1_1_3 + y_LC_0_0 <= 4
LC_IF_UB_0_0_1_4: E_0_0_1 + E_0_0_4 + E_0_1_4 + E_1_1_4 + y_LC_0_0 <= 4
LC_IF_UB_0_0_1_5: E_0_0_1 + E_0_0_5 + E_0_1_5 + E_1_1_5 + y_LC_0_0 <= 4
LC_IF_UB_0_0_2_3: E_0_0_2 + E_0_0_3 + E_0_2_3 + E_1_2_3 + y_LC_0_0 <= 4
LC_IF_UB_0_0_2_4: E_0_0_2 + E_0_0_4 + E_0_2_4 + E_1_2_4 + y_LC_0_0 <= 4
LC_IF_UB_0_0_2_5: E_0_0_2 + E_0_0_5 + E_0_2_5 + E_1_2_5 + y_LC_0_0 <= 4
LC_IF_UB_0_0_3_4: E_0_0_3 + E_0_0_4 + E_0_3_4 + E_1_3_4 + y_LC_0_0 <= 4
LC_IF_UB_0_0_3_5: E_0_0_3 + E_0_0_5 + E_0_3_5 + E_1_3_5 + y_LC_0_0 <= 4
LC_IF_UB_0_0_4_5: E_0_0_4 + E_0_0_5 + E_0_4_5 + E_1_4_5 + y_LC_0_0 <= 4
LC_IF_UB_0_1_0_2: E_0_0_1 + E_0_0_2 + E_0_1_2 + E_1_0_2 + y_LC_0_1 <= 4
LC_IF_UB_0_1_0_3: E_0_0_1 + E_0_0_3 + E_0_1_3 + E_1_0_3 + y_LC_0_1 <= 4
LC_IF_UB_0_1_0_4: E_0_0_1 + E_0_0_4 + E_0_1_4 + E_1_0_4 + y_LC_0_1 <= 4
LC_IF_UB_0_1_0_5: E_0_0_1 + E_0_0_5 + E_0_1_5 + E_1_0_5 + y_LC_0_1 <= 4
LC_IF_UB_0_1_2_3: E_0_1_2 + E_0_1_3 + E_0_2_3 + E_1_2_3 + y_LC_0_1 <= 4
LC_IF_UB_0_1_2_4: E_0_1_2 + E_0_1_4 + E_0_2_4 + E_1_2_4 + y_LC_0_1 <= 4
LC_IF_UB_0_1_2_5: E_0_1_2 + E_0_1_5 + E_0_2_5 + E_1_2_5 + y_LC_0_1 <= 4
LC_IF_UB_0_1_3_4: E_0_1_3 + E_0_1_4 + E_0_3_4 + E_1_3_4 + y_LC_0_1 <= 4
LC_IF_UB_0_1_3_5: E_0_1_3 + E_0_1_5 + E_0_3_5 + E_1_3_5 + y_LC_0_1 <= 4
LC_IF_UB_0_1_4_5: E_0_1_4 + E_0_1_5 + E_0_4_5 + E_1_4_5 + y_LC_0_1 <= 4
LC_IF_UB_0_2_0_1: E_0_0_1 + E_0_0_2 + E_0_1_2 + E_1_0_1 + y_LC_0_2 <= 4
LC_IF_UB_0_2_0_3: E_0_0_2 + E_0_0_3 + E_0_2_3 + E_1_0_3 + y_LC_0_2 <= 4
LC_IF_UB_0_2_0_4: E_0_0_2 + E_0_0_4 + E_0_2_4 + E_1_0_4 + y_LC_0_2 <= 4
LC_IF_UB_0_2_0_5: E_0_0_2 + E_0_0_5 + E_0_2_5 + E_1_0_5 + y_LC_0_2 <= 4
LC_IF_UB_0_2_1_3: E_0_1_2 + E_0_1_3 + E_0_2_3 + E_1_1_3 + y_LC_0_2 <= 4
LC_IF_UB_0_2_1_4: E_0_1_2 + E_0_1_4 + E_0_2_4 + E_1_1_4 + y_LC_0_2 <= 4
LC_IF_UB_0_2_1_5: E_0_1_2 + E_0_1_5 + E_0_2_5 + E_1_1_5 + y_LC_0_2 <= 4
LC_IF_UB_0_2_3_4: E_0_2_3 + E_0_2_4 + E_0_3_4 + E_1_3_4 + y_LC_0_2 <= 4
LC_IF_UB_0_2_3_5: E_0_2_3 + E_0_2_5 + E_0_3_5 + E_1_3_5 + y_LC_0_2 <= 4
LC_IF_UB_0_2_4_5: E_0_2_4 + E_0_2_5 + E_0_4_5 + E_1_4_5 + y_LC_0_2 <= 4
LC_IF_UB_0_3_0_1: E_0_0_1 + E_0_0_3 + E_0_1_3 + E_1_0_1 + y_LC_0_3 <= 4
LC_IF_UB_0_3_0_2: E_0_0_2 + E_0_0_3 + E_0_2_3 + E_1_0_2 + y_LC_0_3 <= 4
LC_IF_UB_0_3_0_4: E_0_0_3 + E_0_0_4 + E_0_3_4 + E_1_0_4 + y_LC_0_3 <= 4
LC_IF_UB_0_3_0_5: E_0_0_3 + E_0_0_5 + E_0_3_5 + E_1_0_5 + y_LC_0_3 <= 4
LC_IF_UB_0_3_1_2: E_0_1_2 + E_0_1_3 + E_0_2_3 + E_1_1_2 + y_LC_0_3 <= 4
LC_IF_UB_0_3_1_4: E_0_1_3 + E_0_1_4 + E_0_3_4 + E_1_1_4 + y_LC_0_3 <= 4
LC_IF_UB_0_3_1_5: E_0_1_3 + E_0_1_5 + E_0_3_5 + E_1_1_5 + y_LC_0_3 <= 4
LC_IF_UB_0_3_2_4: E_0_2_3 + E_0_2_4 + E_0_3_4 + E_1_2_4 + y_LC_0_3 <= 4
LC_IF_UB_0_3_2_5: E_0_2_3 + E_0_2_5 + E_0_3_5 + E_1_2_5 + y_LC_0_3 <= 4
LC_IF_UB_0_3_4_5: E_0_3_4 + E_0_3_5 + E_0_4_5 + E_1_4_5 + y_LC_0_3 <= 4
LC_IF_UB_0_4_0_1: E_0_0_1 + E_0_0_4 + E_0_1_4 + E_1_0_1 + y_LC_0_4 <= 4
LC_IF_UB_0_4_0_2: E_0_0_2 + E_0_0_4 + E_0_2_4 + E_1_0_2 + y_LC_0_4 <= 4
LC_IF_UB_0_4_0_3: E_0_0_3 + E_0_0_4 + E_0_3_4 + E_1_0_3 + y_LC_0_4 <= 4
LC_IF_UB_0_4_0_5: E_0_0_4 + E_0_0_5 + E_0_4_5 + E_1_0_5 + y_LC_0_4 <= 4
LC_IF_UB_0_4_1_2: E_0_1_2 + E_0_1_4 + E_0_2_4 + E_1_1_2 + y_LC_0_4 <= 4
LC_IF_UB_0_4_1_3: E_0_1_3 + E_0_1_4 + E_0_3_4 + E_1_1_3 + y_LC_0_4 <= 4
LC_IF_UB_0_4_1_5: E_0_1_4 + E_0_1_5 + E_0_4_5 + E_1_1_5 + y_LC_0_4 <= 4
LC_IF_UB_0_4_2_3: E_0_2_3 + E_0_2_4 + E_0_3_4 + E_1_2_3 + y_LC_0_4 <= 4
LC_IF_UB_0_4_2_5: E_0_2_4 + E_0_2_5 + E_0_4_5 + E_1_2_5 + y_LC_0_4 <= 4
LC_IF_UB_0_4_3_5: E_0_3_4 + E_0_3_5 + E_0_4_5 + E_1_3_5 + y_LC_0_4 <= 4
LC_IF_UB_0_5_0_1: E_0_0_1 + E_0_0_5 + E_0_1_5 + E_1_0_1 + y_LC_0_5 <= 4
LC_IF_UB_0_5_0_2: E_0_0_2 + E_0_0_5 + E_0_2_5 + E_1_0_2 + y_LC_0_5 <= 4
LC_IF_UB_0_5_0_3: E_0_0_3 + E_0_0_5 + E_0_3_5 + E_1_0_3 + y_LC_0_5 <= 4
LC_IF_UB_0_5_0_4: E_0_0_4 + E_0_0_5 + E_0_4_5 + E_1_0_4 + y_LC_0_5 <= 4
LC_IF_UB_0_5_1_2: E_0_1_2 + E_0_1_5 + E_0_2_5 + E_1_1_2 + y_LC_0_5 <= 4
LC_IF_UB_0_5_1_3: E_0_1_3 + E_0_1_5 + E_0_3_5 + E_1_1_3 + y_LC_0_5 <= 4
LC_IF_UB_0_5_1_4: E_0_1_4 + E_0_1_5 + E_0_4_5 + E_1_1_4 + y_LC_0_5 <= 4
LC_IF_UB_0_5_2_3: E_0_2_3 + E_0_2_5 + E_0_3_5 + E_1_2_3 + y_LC_0_5 <= 4
LC_IF_UB_0_5_2_4: E_0_2_4 + E_0_2_5 + E_0_4_5 + E_1_2_4 + y_LC_0_5 <= 4
LC_IF_UB_0_5_3_4: E_0_3_4 + E_0_3_5 + E_0_4_5 + E_1_3_4 + y_LC_0_5 <= 4
LC_IF_UB_1_0_1_2: E_1_0_1 + E_1_0_2 + E_1_1_2 + E_2_1_2 + y_LC_1_0 <= 4
LC_IF_UB_1_0_1_3: E_1_0_1 + E_1_0_3 + E_1_1_3 + E_2_1_3 + y_LC_1_0 <= 4
LC_IF_UB_1_0_1_4: E_1_0_1 + E_1_0_4 + E_1_1_4 + E_2_1_4 + y_LC_1_0 <= 4
LC_IF_UB_1_0_1_5: E_1_0_1 + E_1_0_5 + E_1_1_5 + E_2_1_5 + y_LC_1_0 <= 4
LC_IF_UB_1_0_2_3: E_1_0_2 + E_1_0_3 + E_1_2_3 + E_2_2_3 + y_LC_1_0 <= 4
LC_IF_UB_1_0_2_4: E_1_0_2 + E_1_0_4 + E_1_2_4 + E_2_2_4 + y_LC_1_0 <= 4
LC_IF_UB_1_0_2_5: E_1_0_2 + E_1_0_5 + E_1_2_5 + E_2_2_5 + y_LC_1_0 <= 4
LC_IF_UB_1_0_3_4: E_1_0_3 + E_1_0_4 + E_1_3_4 + E_2_3_4 + y_LC_1_0 <= 4
LC_IF_UB_1_0_3_5: E_1_0_3 + E_1_0_5 + E_1_3_5 + E_2_3_5 + y_LC_1_0 <= 4
LC_IF_UB_1_0_4_5: E_1_0_4 + E_1_0_5 + E_1_4_5 + E_2_4_5 + y_LC_1_0 <= 4
LC_IF_UB_1_1_0_2: E_1_0_1 + E_1_0_2 + E_1_1_2 + E_2_0_2 + y_LC_1_1 <= 4
LC_IF_UB_1_1_0_3: E_1_0_1 + E_1_0_3 + E_1_1_3 + E_2_0_3 + y_LC_1_1 <= 4
LC_IF_UB_1_1_0_4: E_1_0_1 + E_1_0_4 + E_1_1_4 + E_2_0_4 + y_LC_1_1 <= 4
LC_IF_UB_1_1_0_5: E_1_0_1 + E_1_0_5 + E_1_1_5 + E_2_0_5 + y_LC_1_1 <= 4
LC_IF_UB_1_1_2_3: E_1_1_2 + E_1_1_3 + E_1_2_3 + E_2_2_3 + y_LC_1_1 <= 4
LC_IF_UB_1_1_2_4: E_1_1_2 + E_1_1_4 + E_1_2_4 + E_2_2_4 + y_LC_1_1 <= 4
LC_IF_UB_1_1_2_5: E_1_1_2 + E_1_1_5 + E_1_2_5 + E_2_2_5 + y_LC_1_1 <= 4
LC_IF_UB_1_1_3_4: E_1_1_3 + E_1_1_4 + E_1_3_4 + E_2_3_4 + y_LC_1_1 <= 4
LC_IF_UB_1_1_3_5: E_1_1_3 + E_1_1_5 + E_1_3_5 + E_2_3_5 + y_LC_1_1 <= 4
LC_IF_UB_1_1_4_5: E_1_1_4 + E_1_1_5 + E_1_4_5 + E_2_4_5 + y_LC_1_1 <= 4
LC_IF_UB_1_2_0_1: E_1_0_1 + E_1_0_2 + E_1_1_2 + E_2_0_1 + y_LC_1_2 <= 4
LC_IF_UB_1_2_0_3: E_1_0_2 + E_1_0_3 + E_1_2_3 + E_2_0_3 + y_LC_1_2 <= 4
LC_IF_UB_1_2_0_4: E_1_0_2 + E_1_0_4 + E_1_2_4 + E_2_0_4 + y_LC_1_2 <= 4
LC_IF_UB_1_2_0_5: E_1_0_2 + E_1_0_5 + E_1_2_5 + E_2_0_5 + y_LC_1_2 <= 4
LC_IF_UB_1_2_1_3: E_1_1_2 + E_1_1_3 + E_1_2_3 + E_2_1_3 + y_LC_1_2 <= 4
LC_IF_UB_1_2_1_4: E_1_1_2 + E_1_1_4 + E_1_2_4 + E_2_1_4 + y_LC_1_2 <= 4
LC_IF_UB_1_2_1_5: E_1_1_2 + E_1_1_5 + E_1_2_5 + E_2_1_5 + y_LC_1_2 <= 4
LC_IF_UB_1_2_3_4: E_1_2_3 + E_1_2_4 + E_1_3_4 + E_2_3_4 + y_LC_1_2 <= 4
LC_IF_UB_1_2_3_5: E_1_2_3 + E_1_2_5 + E_1_3_5 + E_2_3_5 + y_LC_1_2 <= 4
LC_IF_UB_1_2_4_5: E_1_2_4 + E_1_2_5 + E_1_4_5 + E_2_4_5 + y_LC_1_2 <= 4
LC_IF_UB_1_3_0_1: E_1_0_1 + E_1_0_3 + E_1_1_3 + E_2_0_1 + y_LC_1_3 <= 4
LC_IF_UB_1_3_0_2: E_1_0_2 + E_1_0_3 + E_1_2_3 + E_2_0_2 + y_LC_1_3 <= 4
LC_IF_UB_1_3_0_4: E_1_0_3 + E_1_0_4 + E_1_3_4 + E_2_0_4 + y_LC_1_3 <= 4
LC_IF_UB_1_3_0_5: E_1_0_3 + E_1_0_5 + E_1_3_5 + E_2_0_5 + y_LC_1_3 <= 4
LC_IF_UB_1_3_1_2: E_1_1_2 + E_1_1_3 + E_1_2_3 + E_2_1_2 + y_LC_1_3 <= 4
LC_IF_UB_1_3_1_4: E_1_1_3 + E_1_1_4 + E_1_3_4 + E_2_1_4 + y_LC_1_3 <= 4
LC_IF_UB_1_3_1_5: E_1_1_3 + E_1_1_5 + E_1_3_5 + E_2_1_5 + y_LC_1_3 <= 4
LC_IF_UB_1_3_2_4: E_1_2_3 + E_1_2_4 + E_1_3_4 + E_2_2_4 + y_LC_1_3 <= 4
LC_IF_UB_1_3_2_5: E_1_2_3 + E_1_2_5 + E_1_3_5 + E_2_2_5 + y_LC_1_3 <= 4
LC_IF_UB_1_3_4_5: E_1_3_4 + E_1_3_5 + E_1_4_5 + E_2_4_5 + y_LC_1_3 <= 4
LC_IF_UB_1_4_0_1: E_1_0_1 + E_1_0_4 + E_1_1_4 + E_2_0_1 + y_LC_1_4 <= 4
LC_IF_UB_1_4_0_2: E_1_0_2 + E_1_0_4 + E_1_2_4 + E_2_0_2 + y_LC_1_4 <= 4
LC_IF_UB_1_4_0_3: E_1_0_3 + E_1_0_4 + E_1_3_4 + E_2_0_3 + y_LC_1_4 <= 4
LC_IF_UB_1_4_0_5: E_1_0_4 + E_1_0_5 + E_1_4_5 + E_2_0_5 + y_LC_1_4 <= 4
LC_IF_UB_1_4_1_2: E_1_1_2 + E_1_1_4 + E_1_2_4 + E_2_1_2 + y_LC_1_4 <= 4
LC_IF_UB_1_4_1_3: E_1_1_3 + E_1_1_4 + E_1_3_4 + E_2_1_3 + y_LC_1_4 <= 4
LC_IF_UB_1_4_1_5: E_1_1_4 + E_1_1_5 + E_1_4_5 + E_2_1_5 + y_LC_1_4 <= 4
LC_IF_UB_1_4_2_3: E_1_2_3 + E_1_2_4 + E_1_3_4 + E_2_2_3 + y_LC_1_4 <= 4
LC_IF_UB_1_4_2_5: E_1_2_4 + E_1_2_5 + E_1_4_5 + E_2_2_5 + y_LC_1_4 <= 4
LC_IF_UB_1_4_3_5: E_1_3_4 + E_1_3_5 + E_1_4_5 + E_2_3_5 + y_LC_1_4 <= 4
LC_IF_UB_1_5_0_1: E_1_0_1 + E_1_0_5 + E_1_1_5 + E_2_0_1 + y_LC_1_5 <= 4
LC_IF_UB_1_5_0_2: E_1_0_2 + E_1_0_5 + E_1_2_5 + E_2_0_2 + y_LC_1_5 <= 4
LC_IF_UB_1_5_0_3: E_1_0_3 + E_1_0_5 + E_1_3_5 + E_2_0_3 + y_LC_1_5 <= 4
LC_IF_UB_1_5_0_4: E_1_0_4 + E_1_0_5 + E_1_4_5 + E_2_0_4 + y_LC_1_5 <= 4
LC_IF_UB_1_5_1_2: E_1_1_2 + E_1_1_5 + E_1_2_5 + E_2_1_2 + y_LC_1_5 <= 4
LC_IF_UB_1_5_1_3: E_1_1_3 + E_1_1_5 + E_1_3_5 + E_2_1_3 + y_LC_1_5 <= 4
LC_IF_UB_1_5_1_4: E_1_1_4 + E_1_1_5 + E_1_4_5 + E_2_1_4 + y_LC_1_5 <= 4
LC_IF_UB_1_5_2_3: E_1_2_3 + E_1_2_5 + E_1_3_5 + E_2_2_3 + y_LC_1_5 <= 4
LC_IF_UB_1_5_2_4: E_1_2_4 + E_1_2_5 + E_1_4_5 + E_2_2_4 + y_LC_1_5 <= 4
LC_IF_UB_1_5_3_4: E_1_3_4 + E_1_3_5 + E_1_4_5 + E_2_3_4 + y_LC_1_5 <= 4
LC_IF_UB_2_0_1_2: E_2_0_1 + E_2_0_2 + E_2_1_2 + E_3_1_2 + y_LC_2_0 <= 4
LC_IF_UB_2_0_1_3: E_2_0_1 + E_2_0_3 + E_2_1_3 + E_3_1_3 + y_LC_2_0 <= 4
LC_IF_UB_2_0_1_4: E_2_0_1 + E_2_0_4 + E_2_1_4 + E_3_1_4 + y_LC_2_0 <= 4
LC_IF_UB_2_0_1_5: E_2_0_1 + E_2_0_5 + E_2_1_5 + E_3_1_5 + y_LC_2_0 <= 4
LC_IF_UB_2_0_2_3: E_2_0_2 + E_2_0_3 + E_2_2_3 + E_3_2_3 + y_LC_2_0 <= 4
LC_IF_UB_2_0_2_4: E_2_0_2 + E_2_0_4 + E_2_2_4 + E_3_2_4 + y_LC_2_0 <= 4
LC_IF_UB_2_0_2_5: E_2_0_2 + E_2_0_5 + E_2_2_5 + E_3_2_5 + y_LC_2_0 <= 4
LC_IF_UB_2_0_3_4: E_2_0_3 + E_2_0_4 + E_2_3_4 + E_3_3_4 + y_LC_2_0 <= 4
LC_IF_UB_2_0_3_5: E_2_0_3 + E_2_0_5 + E_2_3_5 + E_3_3_5 + y_LC_2_0 <= 4
LC_IF_UB_2_0_4_5: E_2_0_4 + E_2_0_5 + E_2_4_5 + E_3_4_5 + y_LC_2_0 <= 4
LC_IF_UB_2_1_0_2: E_2_0_1 + E_2_0_2 + E_2_1_2 + E_3_0_2 + y_LC_2_1 <= 4
LC_IF_UB_2_1_0_3: E_2_0_1 + E_2_0_3 + E_2_1_3 + E_3_0_3 + y_LC_2_1 <= 4
LC_IF_UB_2_1_0_4: E_2_0_1 + E_2_0_4 + E_2_1_4 + E_3_0_4 + y_LC_2_1 <= 4
LC_IF_UB_2_1_0_5: E_2_0_1 + E_2_0_5 + E_2_1_5 + E_3_0_5 + y_LC_2_1 <= 4
LC_IF_UB_2_1_2_3: E_2_1_2 + E_2_1_3 + E_2_2_3 + E_3_2_3 + y_LC_2_1 <= 4
LC_IF_UB_2_1_2_4: E_2_1_2 + E_2_1_4 + E_2_2_4 + E_3_2_4 + y_LC_2_1 <= 4
LC_IF_UB_2_1_2_5: E_2_1_2 + E_2_1_5 + E_2_2_5 + E_3_2_5 + y_LC_2_1 <= 4
LC_IF_UB_2_1_3_4: E_2_1_3 + E_2_1_4 + E_2_3_4 + E_3_3_4 + y_LC_2_1 <= 4
LC_IF_UB_2_1_3_5: E_2_1_3 + E_2_1_5 + E_2_3_5 + E_3_3_5 + y_LC_2_1 <= 4
LC_IF_UB_2_1_4_5: E_2_1_4 + E_2_1_5 + E_2_4_5 + E_3_4_5 + y_LC_2_1 <= 4
LC_IF_UB_2_2_0_1: E_2_0_1 + E_2_0_2 + E_2_1_2 + E_3_0_1 + y_LC_2_2 <= 4
LC_IF_UB_2_2_0_3: E_2_0_2 + E_2_0_3 + E_2_2_3 + E_3_0_3 + y_LC_2_2 <= 4
LC_IF_UB_2_2_0_4: E_2_0_2 + E_2_0_4 + E_2_2_4 + E_3_0_4 + y_LC_2_2 <= 4
LC_IF_UB_2_2_0_5: E_2_0_2 + E_2_0_5 + E_2_2_5 + E_3_0_5 + y_LC_2_2 <= 4
LC_IF_UB_2_2_1_3: E_2_1_2 + E_2_1_3 + E_2_2_3 + E_3_1_3 + y_LC_2_2 <= 4
LC_IF_UB_2_2_1_4: E_2_1_2 + E_2_1_4 + E_2_2_4 + E_3_1_4 + y_LC_2_2 <= 4
LC_IF_UB_2_2_1_5: E_2_1_2 + E_2_1_5 + E_2_2_5 + E_3_1_5 + y_LC_2_2 <= 4
LC_IF_UB_2_2_3_4: E_2_2_3 + E_2_2_4 + E_2_3_4 + E_3_3_4 + y_LC_2_2 <= 4
LC_IF_UB_2_2_3_5: E_2_2_3 + E_2_2_5 + E_2_3_5 + E_3_3_5 + y_LC_2_2 <= 4
LC_IF_UB_2_2_4_5: E_2_2_4 + E_2_2_5 + E_2_4_5 + E_3_4_5 + y_LC_2_2 <= 4
LC_IF_UB_2_3_0_1: E_2_0_1 + E_2_0_3 + E_2_1_3 + E_3_0_1 + y_LC_2_3 <= 4
LC_IF_UB_2_3_0_2: E_2_0_2 + E_2_0_3 + E_2_2_3 + E_3_0_2 + y_LC_2_3 <= 4
LC_IF_UB_2_3_0_4: E_2_0_3 + E_2_0_4 + E_2_3_4 + E_3_0_4 + y_LC_2_3 <= 4
LC_IF_UB_2_3_0_5: E_2_0_3 + E_2_0_5 + E_2_3_5 + E_3_0_5 + y_LC_2_3 <= 4
LC_IF_UB_2_3_1_2: E_2_1_2 + E_2_1_3 + E_2_2_3 + E_3_1_2 + y_LC_2_3 <= 4
LC_IF_UB_2_3_1_4: E_2_1_3 + E_2_1_4 + E_2_3_4 + E_3_1_4 + y_LC_2_3 <= 4
LC_IF_UB_2_3_1_5: E_2_1_3 + E_2_1_5 + E_2_3_5 + E_3_1_5 + y_LC_2_3 <= 4
LC_IF_UB_2_3_2_4: E_2_2_3 + E_2_2_4 + E_2_3_4 + E_3_2_4 + y_LC_2_3 <= 4
LC_IF_UB_2_3_2_5: E_2_2_3 + E_2_2_5 + E_2_3_5 + E_3_2_5 + y_LC_2_3 <= 4
LC_IF_UB_2_3_4_5: E_2_3_4 + E_2_3_5 + E_2_4_5 + E_3_4_5 + y_LC_2_3 <= 4
LC_IF_UB_2_4_0_1: E_2_0_1 + E_2_0_4 + E_2_1_4 + E_3_0_1 + y_LC_2_4 <= 4
LC_IF_UB_2_4_0_2: E_2_0_2 + E_2_0_4 + E_2_2_4 + E_3_0_2 + y_LC_2_4 <= 4
LC_IF_UB_2_4_0_3: E_2_0_3 + E_2_0_4 + E_2_3_4 + E_3_0_3 + y_LC_2_4 <= 4
LC_IF_UB_2_4_0_5: E_2_0_4 + E_2_0_5 + E_2_4_5 + E_3_0_5 + y_LC_2_4 <= 4
LC_IF_UB_2_4_1_2: E_2_1_2 + E_2_1_4 + E_2_2_4 + E_3_1_2 + y_LC_2_4 <= 4
LC_IF_UB_2_4_1_3: E_2_1_3 + E_2_1_4 + E_2_3_4 + E_3_1_3 + y_LC_2_4 <= 4
LC_IF_UB_2_4_1_5: E_2_1_4 + E_2_1_5 + E_2_4_5 + E_3_1_5 + y_LC_2_4 <= 4
LC_IF_UB_2_4_2_3: E_2_2_3 + E_2_2_4 + E_2_3_4 + E_3_2_3 + y_LC_2_4 <= 4
LC_IF_UB_2_4_2_5: E_2_2_4 + E_2_2_5 + E_2_4_5 + E_3_2_5 + y_LC_2_4 <= 4
LC_IF_UB_2_4_3_5: E_2_3_4 + E_2_3_5 + E_2_4_5 + E_3_3_5 + y_LC_2_4 <= 4
LC_IF_UB_2_5_0_1: E_2_0_1 + E_2_0_5 + E_2_1_5 + E_3_0_1 + y_LC_2_5 <= 4
LC_IF_UB_2_5_0_2: E_2_0_2 + E_2_0_5 + E_2_2_5 + E_3_0_2 + y_LC_2_5 <= 4
LC_IF_UB_2_5_0_3: E_2_0_3 + E_2_0_5 + E_2_3_5 + E_3_0_3 + y_LC_2_5 <= 4
LC_IF_UB_2_5_0_4: E_2_0_4 + E_2_0_5 + E_2_4_5 + E_3_0_4 + y_LC_2_5 <= 4
LC_IF_UB_2_5_1_2: E_2_1_2 + E_2_1_5 + E_2_2_5 + E_3_1_2 + y_LC_2_5 <= 4
LC_IF_UB_2_5_1_3: E_2_1_3 + E_2_1_5 + E_2_3_5 + E_3_1_3 + y_LC_2_5 <= 4
LC_IF_UB_2_5_1_4: E_2_1_4 + E_2_1_5 + E_2_4_5 + E_3_1_4 + y_LC_2_5 <= 4
LC_IF_UB_2_5_2_3: E_2_2_3 + E_2_2_5 + E_2_3_5 + E_3_2_3 + y_LC_2_5 <= 4
LC_IF_UB_2_5_2_4: E_2_2_4 + E_2_2_5 + E_2_4_5 + E_3_2_4 + y_LC_2_5 <= 4
LC_IF_UB_2_5_3_4: E_2_3_4 + E_2_3_5 + E_2_4_5 + E_3_3_4 + y_LC_2_5 <= 4
LC_IF_UB_3_0_1_2: E_3_0_1 + E_3_0_2 + E_3_1_2 + E_4_1_2 + y_LC_3_0 <= 4
LC_IF_UB_3_0_1_3: E_3_0_1 + E_3_0_3 + E_3_1_3 + E_4_1_3 + y_LC_3_0 <= 4
LC_IF_UB_3_0_1_4: E_3_0_1 + E_3_0_4 + E_3_1_4 + E_4_1_4 + y_LC_3_0 <= 4
LC_IF_UB_3_0_1_5: E_3_0_1 + E_3_0_5 + E_3_1_5 + E_4_1_5 + y_LC_3_0 <= 4
LC_IF_UB_3_0_2_3: E_3_0_2 + E_3_0_3 + E_3_2_3 + E_4_2_3 + y_LC_3_0 <= 4
LC_IF_UB_3_0_2_4: E_3_0_2 + E_3_0_4 + E_3_2_4 + E_4_2_4 + y_LC_3_0 <= 4
LC_IF_UB_3_0_2_5: E_3_0_2 + E_3_0_5 + E_3_2_5 + E_4_2_5 + y_LC_3_0 <= 4
LC_IF_UB_3_0_3_4: E_3_0_3 + E_3_0_4 + E_3_3_4 + E_4_3_4 + y_LC_3_0 <= 4
LC_IF_UB_3_0_3_5: E_3_0_3 + E_3_0_5 + E_3_3_5 + E_4_3_5 + y_LC_3_0 <= 4
LC_IF_UB_3_0_4_5: E_3_0_4 + E_3_0_5 + E_3_4_5 + E_4_4_5 + y_LC_3_0 <= 4
LC_IF_UB_3_1_0_2: E_3_0_1 + E_3_0_2 + E_3_1_2 + E_4_0_2 + y_LC_3_1 <= 4
LC_IF_UB_3_1_0_3: E_3_0_1 + E_3_0_3 + E_3_1_3 + E_4_0_3 + y_LC_3_1 <= 4
LC_IF_UB_3_1_0_4: E_3_0_1 + E_3_0_4 + E_3_1_4 + E_4_0_4 + y_LC_3_1 <= 4
LC_IF_UB_3_1_0_5: E_3_0_1 + E_3_0_5 + E_3_1_5 + E_4_0_5 + y_LC_3_1 <= 4
LC_IF_UB_3_1_2_3: E_3_1_2 + E_3_1_3 + E_3_2_3 + E_4_2_3 + y_LC_3_1 <= 4
LC_IF_UB_3_1_2_4: E_3_1_2 + E_3_1_4 + E_3_2_4 + E_4_2_4 + y_LC_3_1 <= 4
LC_IF_UB_3_1_2_5: E_3_1_2 + E_3_1_5 + E_3_2_5 + E_4_2_5 + y_LC_3_1 <= 4
LC_IF_UB_3_1_3_4: E_3_1_3 + E_3_1_4 + E_3_3_4 + E_4_3_4 + y_LC_3_1 <= 4
LC_IF_UB_3_1_3_5: E_3_1_3 + E_3_1_5 + E_3_3_5 + E_4_3_5 + y_LC_3_1 <= 4
LC_IF_UB_3_1_4_5: E_3_1_4 + E_3_1_5 + E_3_4_5 + E_4_4_5 + y_LC_3_1 <= 4
LC_IF_UB_3_2_0_1: E_3_0_1 + E_3_0_2 + E_3_1_2 + E_4_0_1 + y_LC_3_2 <= 4
LC_IF_UB_3_2_0_3: E_3_0_2 + E_3_0_3 + E_3_2_3 + E_4_0_3 + y_LC_3_2 <= 4
LC_IF_UB_3_2_0_4: E_3_0_2 + E_3_0_4 + E_3_2_4 + E_4_0_4 + y_LC_3_2 <= 4
LC_IF_UB_3_2_0_5: E_3_0_2 + E_3_0_5 + E_3_2_5 + E_4_0_5 + y_LC_3_2 <= 4
LC_IF_UB_3_2_1_3: E_3_1_2 + E_3_1_3 + E_3_2_3 + E_4_1_3 + y_LC_3_2 <= 4
LC_IF_UB_3_2_1_4: E_3_1_2 + E_3_1_4 + E_3_2_4 + E_4_1_4 + y_LC_3_2 <= 4
LC_IF_UB_3_2_1_5: E_3_1_2 + E_3_1_5 + E_3_2_5 + E_4_1_5 + y_LC_3_2 <= 4
LC_IF_UB_3_2_3_4: E_3_2_3 + E_3_2_4 + E_3_3_4 + E_4_3_4 + y_LC_3_2 <= 4
LC_IF_UB_3_2_3_5: E_3_2_3 + E_3_2_5 + E_3_3_5 + E_4_3_5 + y_LC_3_2 <= 4
LC_IF_UB_3_2_4_5: E_3_2_4 + E_3_2_5 + E_3_4_5 + E_4_4_5 + y_LC_3_2 <= 4
LC_IF_UB_3_3_0_1: E_3_0_1 + E_3_0_3 + E_3_1_3 + E_4_0_1 + y_LC_3_3 <= 4
LC_IF_UB_3_3_0_2: E_3_0_2 + E_3_0_3 + E_3_2_3 + E_4_0_2 + y_LC_3_3 <= 4
LC_IF_UB_3_3_0_4: E_3_0_3 + E_3_0_4 + E_3_3_4 + E_4_0_4 + y_LC_3_3 <= 4
LC_IF_UB_3_3_0_5: E_3_0_3 + E_3_0_5 + E_3_3_5 + E_4_0_5 + y_LC_3_3 <= 4
LC_IF_UB_3_3_1_2: E_3_1_2 + E_3_1_3 + E_3_2_3 + E_4_1_2 + y_LC_3_3 <= 4
LC_IF_UB_3_3_1_4: E_3_1_3 + E_3_1_4 + E_3_3_4 + E_4_1_4 + y_LC_3_3 <= 4
LC_IF_UB_3_3_1_5: E_3_1_3 + E_3_1_5 + E_3_3_5 + E_4_1_5 + y_LC_3_3 <= 4
LC_IF_UB_3_3_2_4: E_3_2_3 + E_3_2_4 + E_3_3_4 + E_4_2_4 + y_LC_3_3 <= 4
LC_IF_UB_3_3_2_5: E_3_2_3 + E_3_2_5 + E_3_3_5 + E_4_2_5 + y_LC_3_3 <= 4
LC_IF_UB_3_3_4_5: E_3_3_4 + E_3_3_5 + E_3_4_5 + E_4_4_5 + y_LC_3_3 <= 4
LC_IF_UB_3_4_0_1: E_3_0_1 + E_3_0_4 + E_3_1_4 + E_4_0_1 + y_LC_3_4 <= 4
LC_IF_UB_3_4_0_2: E_3_0_2 + E_3_0_4 + E_3_2_4 + E_4_0_2 + y_LC_3_4 <= 4
LC_IF_UB_3_4_0_3: E_3_0_3 + E_3_0_4 + E_3_3_4 + E_4_0_3 + y_LC_3_4 <= 4
LC_IF_UB_3_4_0_5: E_3_0_4 + E_3_0_5 + E_3_4_5 + E_4_0_5 + y_LC_3_4 <= 4
LC_IF_UB_3_4_1_2: E_3_1_2 + E_3_1_4 + E_3_2_4 + E_4_1_2 + y_LC_3_4 <= 4
LC_IF_UB_3_4_1_3: E_3_1_3 + E_3_1_4 + E_3_3_4 + E_4_1_3 + y_LC_3_4 <= 4
LC_IF_UB_3_4_1_5: E_3_1_4 + E_3_1_5 + E_3_4_5 + E_4_1_5 + y_LC_3_4 <= 4
LC_IF_UB_3_4_2_3: E_3_2_3 + E_3_2_4 + E_3_3_4 + E_4_2_3 + y_LC_3_4 <= 4
LC_IF_UB_3_4_2_5: E_3_2_4 + E_3_2_5 + E_3_4_5 + E_4_2_5 + y_LC_3_4 <= 4
LC_IF_UB_3_4_3_5: E_3_3_4 + E_3_3_5 + E_3_4_5 + E_4_3_5 + y_LC_3_4 <= 4
LC_IF_UB_3_5_0_1: E_3_0_1 + E_3_0_5 + E_3_1_5 + E_4_0_1 + y_LC_3_5 <= 4
LC_IF_UB_3_5_0_2: E_3_0_2 + E_3_0_5 + E_3_2_5 + E_4_0_2 + y_LC_3_5 <= 4
LC_IF_UB_3_5_0_3: E_3_0_3 + E_3_0_5 + E_3_3_5 + E_4_0_3 + y_LC_3_5 <= 4
LC_IF_UB_3_5_0_4: E_3_0_4 + E_3_0_5 + E_3_4_5 + E_4_0_4 + y_LC_3_5 <= 4
LC_IF_UB_3_5_1_2: E_3_1_2 + E_3_1_5 + E_3_2_5 + E_4_1_2 + y_LC_3_5 <= 4
LC_IF_UB_3_5_1_3: E_3_1_3 + E_3_1_5 + E_3_3_5 + E_4_1_3 + y_LC_3_5 <= 4
LC_IF_UB_3_5_1_4: E_3_1_4 + E_3_1_5 + E_3_4_5 + E_4_1_4 + y_LC_3_5 <= 4
LC_IF_UB_3_5_2_3: E_3_2_3 + E_3_2_5 + E_3_3_5 + E_4_2_3 + y_LC_3_5 <= 4
LC_IF_UB_3_5_2_4: E_3_2_4 + E_3_2_5 + E_3_4_5 + E_4_2_4 + y_LC_3_5 <= 4
LC_IF_UB_3_5_3_4: E_3_3_4 + E_3_3_5 + E_3_4_5 + E_4_3_4 + y_LC_3_5 <= 4
LC_ONLYIF_LB_0_0_1_2: - E_0_0_1 - E_0_0_2 + 2 E_0_1_2 - 2 E_1_1_2 + 2 y_LC_0_0
 <= 2
LC_ONLYIF_LB_0_0_1_3: - E_0_0_1 - E_0_0_3 + 2 E_0_1_3 - 2 E_1_1_3 + 2 y_LC_0_0
 <= 2
LC_ONLYIF_LB_0_0_1_4: - E_0_0_1 - E_0_0_4 + 2 E_0_1_4 - 2 E_1_1_4 + 2 y_LC_0_0
 <= 2
LC_ONLYIF_LB_0_0_1_5: - E_0_0_1 - E_0_0_5 + 2 E_0_1_5 - 2 E_1_1_5 + 2 y_LC_0_0
 <= 2
LC_ONLYIF_LB_0_0_2_3: - E_0_0_2 - E_0_0_3 + 2 E_0_2_3 - 2 E_1_2_3 + 2 y_LC_0_0
 <= 2
LC_ONLYIF_LB_0_0_2_4: - E_0_0_2 - E_0_0_4 + 2 E_0_2_4 - 2 E_1_2_4 + 2 y_LC_0_0
 <= 2
LC_ONLYIF_LB_0_0_2_5: - E_0_0_2 - E_0_0_5 + 2 E_0_2_5 - 2 E_1_2_5 + 2 y_LC_0_0
 <= 2
LC_ONLYIF_LB_0_0_3_4: - E_0_0_3 - E_0_0_4 + 2 E_0_3_4 - 2 E_1_3_4 + 2 y_LC_0_0
 <= 2
LC_ONLYIF_LB_0_0_3_5: - E_0_0_3 - E_0_0_5 + 2 E_0_3_5 - 2 E_1_3_5 + 2 y_LC_0_0
 <= 2
LC_ONLYIF_LB_0_0_4_5: - E_0_0_4 - E_0_0_5 + 2 E_0_4_5 - 2 E_1_4_5 + 2 y_LC_0_0
 <= 2
LC_ONLYIF_LB_0_1_0_2: - E_0_0_1 + 2 E_0_0_2 - E_0_1_2 - 2 E_1_0_2 + 2 y_LC_0_1
 <= 2
LC_ONLYIF_LB_0_1_0_3: - E_0_0_1 + 2 E_0_0_3 - E_0_1_3 - 2 E_1_0_3 + 2 y_LC_0_1
 <= 2
LC_ONLYIF_LB_0_1_0_4: - E_0_0_1 + 2 E_0_0_4 - E_0_1_4 - 2 E_1_0_4 + 2 y_LC_0_1
 <= 2
LC_ONLYIF_LB_0_1_0_5: - E_0_0_1 + 2 E_0_0_5 - E_0_1_5 - 2 E_1_0_5 + 2 y_LC_0_1
 <= 2
LC_ONLYIF_LB_0_1_2_3: - E_0_1_2 - E_0_1_3 + 2 E_0_2_3 - 2 E_1_2_3 + 2 y_LC_0_1
 <= 2
LC_ONLYIF_LB_0_1_2_4: - E_0_1_2 - E_0_1_4 + 2 E_0_2_4 - 2 E_1_2_4 + 2 y_LC_0_1
 <= 2
LC_ONLYIF_LB_0_1_2_5: - E_0_1_2 - E_0_1_5 + 2 E_0_2_5 - 2 E_1_2_5 + 2 y_LC_0_1
 <= 2
LC_ONLYIF_LB_0_1_3_4: - E_0_1_3 - E_0_1_4 + 2 E_0_3_4 - 2 E_1_3_4 + 2 y_LC_0_1
 <= 2
LC_ONLYIF_LB_0_1_3_5: - E_0_1_3 - E_0_1_5 + 2 E_0_3_5 - 2 E_1_3_5 + 2 y_LC_0_1
 <= 2
LC_ONLYIF_LB_0_1_4_5: - E_0_1_4 - E_0_1_5 + 2 E_0_4_5 - 2 E_1_4_5 + 2 y_LC_0_1
 <= 2
LC_ONLYIF_LB_0_2_0_1: 2 E_0_0_1 - E_0_0_2 - E_0_1_2 - 2 E_1_0_1 + 2 y_LC_0_2
 <= 2
LC_ONLYIF_LB_0_2_0_3: - E_0_0_2 + 2 E_0_0_3 - E_0_2_3 - 2 E_1_0_3 + 2 y_LC_0_2
 <= 2
LC_ONLYIF_LB_0_2_0_4: - E_0_0_2 + 2 E_0_0_4 - E_0_2_4 - 2 E_1_0_4 + 2 y_LC_0_2
 <= 2
LC_ONLYIF_LB_0_2_0_5: - E_0_0_2 + 2 E_0_0_5 - E_0_2_5 - 2 E_1_0_5 + 2 y_LC_0_2
 <= 2
LC_ONLYIF_LB_0_2_1_3: - E_0_1_2 + 2 E_0_1_3 - E_0_2_3 - 2 E_1_1_3 + 2 y_LC_0_2
 <= 2
LC_ONLYIF_LB_0_2_1_4: - E_0_1_2 + 2 E_0_1_4 - E_0_2_4 - 2 E_1_1_4 + 2 y_LC_0_2
 <= 2
LC_ONLYIF_LB_0_2_1_5: - E_0_1_2 + 2 E_0_1_5 - E_0_2_5 - 2 E_1_1_5 + 2 y_LC_0_2
 <= 2
LC_ONLYIF_LB_0_2_3_4: - E_0_2_3 - E_0_2_4 + 2 E_0_3_4 - 2 E_1_3_4 + 2 y_LC_0_2
 <= 2
LC_ONLYIF_LB_0_2_3_5: - E_0_2_3 - E_0_2_5 + 2 E_0_3_5 - 2 E_1_3_5 + 2 y_LC_0_2
 <= 2
LC_ONLYIF_LB_0_2_4_5: - E_0_2_4 - E_0_2_5 + 2 E_0_4_5 - 2 E_1_4_5 + 2 y_LC_0_2
 <= 2
LC_ONLYIF_LB_0_3_0_1: 2 E_0_0_1 - E_0_0_3 - E_0_1_3 - 2 E_1_0_1 + 2 y_LC_0_3
 <= 2
LC_ONLYIF_LB_0_3_0_2: 2 E_0_0_2 - E_0_0_3 - E_0_2_3 - 2 E_1_0_2 + 2 y_LC_0_3
 <= 2
LC_ONLYIF_LB_0_3_0_4: - E_0_0_3 + 2 E_0_0_4 - E_0_3_4 - 2 E_1_0_4 + 2 y_LC_0_3
 <= 2
LC_ONLYIF_LB_0_3_0_5: - E_0_0_3 + 2 E_0_0_5 - E_0_3_5 - 2 E_1_0_5 + 2 y_LC_0_3
 <= 2
LC_ONLYIF_LB_0_3_1_2: 2 E_0_1_2 - E_0_1_3 - E_0_2_3 - 2 E_1_1_2 + 2 y_LC_0_3
 <= 2
LC_ONLYIF_LB_0_3_1_4: - E_0_1_3 + 2 E_0_1_4 - E_0_3_4 - 2 E_1_1_4 + 2 y_LC_0_3
 <= 2
LC_ONLYIF_LB_0_3_1_5: - E_0_1_3 + 2 E_0_1_5 - E_0_3_5 - 2 E_1_1_5 + 2 y_LC_0_3
 <= 2
LC_ONLYIF_LB_0_3_2_4: - E_0_2_3 + 2 E_0_2_4 - E_0_3_4 - 2 E_1_2_4 + 2 y_LC_0_3
 <= 2
LC_ONLYIF_LB_0_3_2_5: - E_0_2_3 + 2 E_0_2_5 - E_0_3_5 - 2 E_1_2_5 + 2 y_LC_0_3
 <= 2
LC_ONLYIF_LB_0_3_4_5: - E_0_3_4 - E_0_3_5 + 2 E_0_4_5 - 2 E_1_4_5 + 2 y_LC_0_3
 <= 2
LC_ONLYIF_LB_0_4_0_1: 2 E_0_0_1 - E_0_0_4 - E_0_1_4 - 2 E_1_0_1 + 2 y_LC_0_4
 <= 2
LC_ONLYIF_LB_0_4_0_2: 2 E_0_0_2 - E_0_0_4 - E_0_2_4 - 2 E_1_0_2 + 2 y_LC_0_4
 <= 2
LC_ONLYIF_LB_0_4_0_3: 2 E_0_0_3 - E_0_0_4 - E_0_3_4 - 2 E_1_0_3 + 2 y_LC_0_4
 <= 2
LC_ONLYIF_LB_0_4_0_5: - E_0_0_4 + 2 E_0_0_5 - E_0_4_5 - 2 E_1_0_5 + 2 y_LC_0_4
 <= 2
LC_ONLYIF_LB_0_4_1_2: 2 E_0_1_2 - E_0_1_4 - E_0_2_4 - 2 E_1_1_2 + 2 y_LC_0_4
 <= 2
LC_ONLYIF_LB_0_4_1_3: 2 E_0_1_3 - E_0_1_4 - E_0_3_4 - 2 E_1_1_3 + 2 y_LC_0_4
 <= 2
LC_ONLYIF_LB_0_4_1_5: - E_0_1_4 + 2 E_0_1_5 - E_0_4_5 - 2 E_1_1_5 + 2 y_LC_0_4
 <= 2
LC_ONLYIF_LB_0_4_2_3: 2 E_0_2_3 - E_0_2_4 - E_0_3_4 - 2 E_1_2_3 + 2 y_LC_0_4
 <= 2
LC_ONLYIF_LB_0_4_2_5: - E_0_2_4 + 2 E_0_2_5 - E_0_4_5 - 2 E_1_2_5 + 2 y_LC_0_4
 <= 2
LC_ONLYIF_LB_0_4_3_5: - E_0_3_4 + 2 E_0_3_5 - E_0_4_5 - 2 E_1_3_5 + 2 y_LC_0_4
 <= 2
LC_ONLYIF_LB_0_5_0_1: 2 E_0_0_1 - E_0_0_5 - E_0_1_5 - 2 E_1_0_1 + 2 y_LC_0_5
 <= 2
LC_ONLYIF_LB_0_5_0_2: 2 E_0_0_2 - E_0_0_5 - E_0_2_5 - 2 E_1_0_2 + 2 y_LC_0_5
 <= 2
LC_ONLYIF_LB_0_5_0_3: 2 E_0_0_3 - E_0_0_5 - E_0_3_5 - 2 E_1_0_3 + 2 y_LC_0_5
 <= 2
LC_ONLYIF_LB_0_5_0_4: 2 E_0_0_4 - E_0_0_5 - E_0_4_5 - 2 E_1_0_4 + 2 y_LC_0_5
 <= 2
LC_ONLYIF_LB_0_5_1_2: 2 E_0_1_2 - E_0_1_5 - E_0_2_5 - 2 E_1_1_2 + 2 y_LC_0_5
 <= 2
LC_ONLYIF_LB_0_5_1_3: 2 E_0_1_3 - E_0_1_5 - E_0_3_5 - 2 E_1_1_3 + 2 y_LC_0_5
 <= 2
LC_ONLYIF_LB_0_5_1_4: 2 E_0_1_4 - E_0_1_5 - E_0_4_5 - 2 E_1_1_4 + 2 y_LC_0_5
 <= 2
LC_ONLYIF_LB_0_5_2_3: 2 E_0_2_3 - E_0_2_5 - E_0_3_5 - 2 E_1_2_3 + 2 y_LC_0_5
 <= 2
LC_ONLYIF_LB_0_5_2_4: 2 E_0_2_4 - E_0_2_5 - E_0_4_5 - 2 E_1_2_4 + 2 y_LC_0_5
 <= 2
LC_ONLYIF_LB_0_5_3_4: 2 E_0_3_4 - E_0_3_5 - E_0_4_5 - 2 E_1_3_4 + 2 y_LC_0_5
 <= 2
LC_ONLYIF_LB_1_0_1_2: - E_1_0_1 - E_1_0_2 + 2 E_1_1_2 - 2 E_2_1_2 + 2 y_LC_1_0
 <= 2
LC_ONLYIF_LB_1_0_1_3: - E_1_0_1 - E_1_0_3 + 2 E_1_1_3 - 2 E_2_1_3 + 2 y_LC_1_0
 <= 2
LC_ONLYIF_LB_1_0_1_4: - E_1_0_1 - E_1_0_4 + 2 E_1_1_4 - 2 E_2_1_4 + 2 y_LC_1_0
 <= 2
LC_ONLYIF_LB_1_0_1_5: - E_1_0_1 - E_1_0_5 + 2 E_1_1_5 - 2 E_2_1_5 + 2 y_LC_1_0
 <= 2
LC_ONLYIF_LB_1_0_2_3: - E_1_0_2 - E_1_0_3 + 2 E_1_2_3 - 2 E_2_2_3 + 2 y_LC_1_0
 <= 2
LC_ONLYIF_LB_1_0_2_4: - E_1_0_2 - E_1_0_4 + 2 E_1_2_4 - 2 E_2_2_4 + 2 y_LC_1_0
 <= 2
LC_ONLYIF_LB_1_0_2_5: - E_1_0_2 - E_1_0_5 + 2 E_1_2_5 - 2 E_2_2_5 + 2 y_LC_1_0
 <= 2
LC_ONLYIF_LB_1_0_3_4: - E_1_0_3 - E_1_0_4 + 2 E_1_3_4 - 2 E_2_3_4 + 2 y_LC_1_0
 <= 2
LC_ONLYIF_LB_1_0_3_5: - E_1_0_3 - E_1_0_5 + 2 E_1_3_5 - 2 E_2_3_5 + 2 y_LC_1_0
 <= 2
LC_ONLYIF_LB_1_0_4_5: - E_1_0_4 - E_1_0_5 + 2 E_1_4_5 - 2 E_2_4_5 + 2 y_LC_1_0
 <= 2
LC_ONLYIF_LB_1_1_0_2: - E_1_0_1 + 2 E_1_0_2 - E_1_1_2 - 2 E_2_0_2 + 2 y_LC_1_1
 <= 2
LC_ONLYIF_LB_1_1_0_3: - E_1_0_1 + 2 E_1_0_3 - E_1_1_3 - 2 E_2_0_3 + 2 y_LC_1_1
 <= 2
LC_ONLYIF_LB_1_1_0_4: - E_1_0_1 + 2 E_1_0_4 - E_1_1_4 - 2 E_2_0_4 + 2 y_LC_1_1
 <= 2
LC_ONLYIF_LB_1_1_0_5: - E_1_0_1 + 2 E_1_0_5 - E_1_1_5 - 2 E_2_0_5 + 2 y_LC_1_1
 <= 2
LC_ONLYIF_LB_1_1_2_3: - E_1_1_2 - E_1_1_3 + 2 E_1_2_3 - 2 E_2_2_3 + 2 y_LC_1_1
 <= 2
LC_ONLYIF_LB_1_1_2_4: - E_1_1_2 - E_1_1_4 + 2 E_1_2_4 - 2 E_2_2_4 + 2 y_LC_1_1
 <= 2
LC_ONLYIF_LB_1_1_2_5: - E_1_1_2 - E_1_1_5 + 2 E_1_2_5 - 2 E_2_2_5 + 2 y_LC_1_1
 <= 2
LC_ONLYIF_LB_1_1_3_4: - E_1_1_3 - E_1_1_4 + 2 E_1_3_4 - 2 E_2_3_4 + 2 y_LC_1_1
 <= 2
LC_ONLYIF_LB_1_1_3_5: - E_1_1_3 - E_1_1_5 + 2 E_1_3_5 - 2 E_2_3_5 + 2 y_LC_1_1
 <= 2
LC_ONLYIF_LB_1_1_4_5: - E_1_1_4 - E_1_1_5 + 2 E_1_4_5 - 2 E_2_4_5 + 2 y_LC_1_1
 <= 2
LC_ONLYIF_LB_1_2_0_1: 2 E_1_0_1 - E_1_0_2 - E_1_1_2 - 2 E_2_0_1 + 2 y_LC_1_2
 <= 2
LC_ONLYIF_LB_1_2_0_3: - E_1_0_2 + 2 E_1_0_3 - E_1_2_3 - 2 E_2_0_3 + 2 y_LC_1_2
 <= 2
LC_ONLYIF_LB_1_2_0_4: - E_1_0_2 + 2 E_1_0_4 - E_1_2_4 - 2 E_2_0_4 + 2 y_LC_1_2
 <= 2
LC_ONLYIF_LB_1_2_0_5: - E_1_0_2 + 2 E_1_0_5 - E_1_2_5 - 2 E_2_0_5 + 2 y_LC_1_2
 <= 2
LC_ONLYIF_LB_1_2_1_3: - E_1_1_2 + 2 E_1_1_3 - E_1_2_3 - 2 E_2_1_3 + 2 y_LC_1_2
 <= 2
LC_ONLYIF_LB_1_2_1_4: - E_1_1_2 + 2 E_1_1_4 - E_1_2_4 - 2 E_2_1_4 + 2 y_LC_1_2
 <= 2
LC_ONLYIF_LB_1_2_1_5: - E_1_1_2 + 2 E_1_1_5 - E_1_2_5 - 2 E_2_1_5 + 2 y_LC_1_2
 <= 2
LC_ONLYIF_LB_1_2_3_4: - E_1_2_3 - E_1_2_4 + 2 E_1_3_4 - 2 E_2_3_4 + 2 y_LC_1_2
 <= 2
LC_ONLYIF_LB_1_2_3_5: - E_1_2_3 - E_1_2_5 + 2 E_1_3_5 - 2 E_2_3_5 + 2 y_LC_1_2
 <= 2
LC_ONLYIF_LB_1_2_4_5: - E_1_2_4 - E_1_2_5 + 2 E_1_4_5 - 2 E_2_4_5 + 2 y_LC_1_2
 <= 2
LC_ONLYIF_LB_1_3_0_1: 2 E_1_0_1 - E_1_0_3 - E_1_1_3 - 2 E_2_0_1 + 2 y_LC_1_3
 <= 2
LC_ONLYIF_LB_1_3_0_2: 2 E_1_0_2 - E_1_0_3 - E_1_2_3 - 2 E_2_0_2 + 2 y_LC_1_3
 <= 2
LC_ONLYIF_LB_1_3_0_4: - E_1_0_3 + 2 E_1_0_4 - E_1_3_4 - 2 E_2_0_4 + 2 y_LC_1_3
 <= 2
LC_ONLYIF_LB_1_3_0_5: - E_1_0_3 + 2 E_1_0_5 - E_1_3_5 - 2 E_2_0_5 + 2 y_LC_1_3
 <= 2
LC_ONLYIF_LB_1_3_1_2: 2 E_1_1_2 - E_1_1_3 - E_1_2_3 - 2 E_2_1_2 + 2 y_LC_1_3
 <= 2
LC_ONLYIF_LB_1_3_1_4: - E_1_1_3 + 2 E_1_1_4 - E_1_3_4 - 2 E_2_1_4 + 2 y_LC_1_3
 <= 2
LC_ONLYIF_LB_1_3_1_5: - E_1_1_3 + 2 E_1_1_5 - E_1_3_5 - 2 E_2_1_5 + 2 y_LC_1_3
 <= 2
LC_ONLYIF_LB_1_3_2_4: - E_1_2_3 + 2 E_1_2_4 - E_1_3_4 - 2 E_2_2_4 + 2 y_LC_1_3
 <= 2
LC_ONLYIF_LB_1_3_2_5: - E_1_2_3 + 2 E_1_2_5 - E_1_3_5 - 2 E_2_2_5 + 2 y_LC_1_3
 <= 2
LC_ONLYIF_LB_1_3_4_5: - E_1_3_4 - E_1_3_5 + 2 E_1_4_5 - 2 E_2_4_5 + 2 y_LC_1_3
 <= 2
LC_ONLYIF_LB_1_4_0_1: 2 E_1_0_1 - E_1_0_4 - E_1_1_4 - 2 E_2_0_1 + 2 y_LC_1_4
 <= 2
LC_ONLYIF_LB_1_4_0_2: 2 E_1_0_2 - E_1_0_4 - E_1_2_4 - 2 E_2_0_2 + 2 y_LC_1_4
 <= 2
LC_ONLYIF_LB_1_4_0_3: 2 E_1_0_3 - E_1_0_4 - E_1_3_4 - 2 E_2_0_3 + 2 y_LC_1_4
 <= 2
LC_ONLYIF_LB_1_4_0_5: - E_1_0_4 + 2 E_1_0_5 - E_1_4_5 - 2 E_2_0_5 + 2 y_LC_1_4
 <= 2
LC_ONLYIF_LB_1_4_1_2: 2 E_1_1_2 - E_1_1_4 - E_1_2_4 - 2 E_2_1_2 + 2 y_LC_1_4
 <= 2
LC_ONLYIF_LB_1_4_1_3: 2 E_1_1_3 - E_1_1_4 - E_1_3_4 - 2 E_2_1_3 + 2 y_LC_1_4
 <= 2
LC_ONLYIF_LB_1_4_1_5: - E_1_1_4 + 2 E_1_1_5 - E_1_4_5 - 2 E_2_1_5 + 2 y_LC_1_4
 <= 2
LC_ONLYIF_LB_1_4_2_3: 2 E_1_2_3 - E_1_2_4 - E_1_3_4 - 2 E_2_2_3 + 2 y_LC_1_4
 <= 2
LC_ONLYIF_LB_1_4_2_5: - E_1_2_4 + 2 E_1_2_5 - E_1_4_5 - 2 E_2_2_5 + 2 y_LC_1_4
 <= 2
LC_ONLYIF_LB_1_4_3_5: - E_1_3_4 + 2 E_1_3_5 - E_1_4_5 - 2 E_2_3_5 + 2 y_LC_1_4
 <= 2
LC_ONLYIF_LB_1_5_0_1: 2 E_1_0_1 - E_1_0_5 - E_1_1_5 - 2 E_2_0_1 + 2 y_LC_1_5
 <= 2
LC_ONLYIF_LB_1_5_0_2: 2 E_1_0_2 - E_1_0_5 - E_1_2_5 - 2 E_2_0_2 + 2 y_LC_1_5
 <= 2
LC_ONLYIF_LB_1_5_0_3: 2 E_1_0_3 - E_1_0_5 - E_1_3_5 - 2 E_2_0_3 + 2 y_LC_1_5
 <= 2
LC_ONLYIF_LB_1_5_0_4: 2 E_1_0_4 - E_1_0_5 - E_1_4_5 - 2 E_2_0_4 + 2 y_LC_1_5
 <= 2
LC_ONLYIF_LB_1_5_1_2: 2 E_1_1_2 - E_1_1_5 - E_1_2_5 - 2 E_2_1_2 + 2 y_LC_1_5
 <= 2
LC_ONLYIF_LB_1_5_1_3: 2 E_1_1_3 - E_1_1_5 - E_1_3_5 - 2 E_2_1_3 + 2 y_LC_1_5
 <= 2
LC_ONLYIF_LB_1_5_1_4: 2 E_1_1_4 - E_1_1_5 - E_1_4_5 - 2 E_2_1_4 + 2 y_LC_1_5
 <= 2
LC_ONLYIF_LB_1_5_2_3: 2 E_1_2_3 - E_1_2_5 - E_1_3_5 - 2 E_2_2_3 + 2 y_LC_1_5
 <= 2
LC_ONLYIF_LB_1_5_2_4: 2 E_1_2_4 - E_1_2_5 - E_1_4_5 - 2 E_2_2_4 + 2 y_LC_1_5
 <= 2
LC_ONLYIF_LB_1_5_3_4: 2 E_1_3_4 - E_1_3_5 - E_1_4_5 - 2 E_2_3_4 + 2 y_LC_1_5
 <= 2
LC_ONLYIF_LB_2_0_1_2: - E_2_0_1 - E_2_0_2 + 2 E_2_1_2 - 2 E_3_1_2 + 2 y_LC_2_0
 <= 2
LC_ONLYIF_LB_2_0_1_3: - E_2_0_1 - E_2_0_3 + 2 E_2_1_3 - 2 E_3_1_3 + 2 y_LC_2_0
 <= 2
LC_ONLYIF_LB_2_0_1_4: - E_2_0_1 - E_2_0_4 + 2 E_2_1_4 - 2 E_3_1_4 + 2 y_LC_2_0
 <= 2
LC_ONLYIF_LB_2_0_1_5: - E_2_0_1 - E_2_0_5 + 2 E_2_1_5 - 2 E_3_1_5 + 2 y_LC_2_0
 <= 2
LC_ONLYIF_LB_2_0_2_3: - E_2_0_2 - E_2_0_3 + 2 E_2_2_3 - 2 E_3_2_3 + 2 y_LC_2_0
 <= 2
LC_ONLYIF_LB_2_0_2_4: - E_2_0_2 - E_2_0_4 + 2 E_2_2_4 - 2 E_3_2_4 + 2 y_LC_2_0
 <= 2
LC_ONLYIF_LB_2_0_2_5: - E_2_0_2 - E_2_0_5 + 2 E_2_2_5 - 2 E_3_2_5 + 2 y_LC_2_0
 <= 2
LC_ONLYIF_LB_2_0_3_4: - E_2_0_3 - E_2_0_4 + 2 E_2_3_4 - 2 E_3_3_4 + 2 y_LC_2_0
 <= 2
LC_ONLYIF_LB_2_0_3_5: - E_2_0_3 - E_2_0_5 + 2 E_2_3_5 - 2 E_3_3_5 + 2 y_LC_2_0
 <= 2
LC_ONLYIF_LB_2_0_4_5: - E_2_0_4 - E_2_0_5 + 2 E_2_4_5 - 2 E_3_4_5 + 2 y_LC_2_0
 <= 2
LC_ONLYIF_LB_2_1_0_2: - E_2_0_1 + 2 E_2_0_2 - E_2_1_2 - 2 E_3_0_2 + 2 y_LC_2_1
 <= 2
LC_ONLYIF_LB_2_1_0_3: - E_2_0_1 + 2 E_2_0_3 - E_2_1_3 - 2 E_3_0_3 + 2 y_LC_2_1
 <= 2
LC_ONLYIF_LB_2_1_0_4: - E_2_0_1 + 2 E_2_0_4 - E_2_1_4 - 2 E_3_0_4 + 2 y_LC_2_1
 <= 2
LC_ONLYIF_LB_2_1_0_5: - E_2_0_1 + 2 E_2_0_5 - E_2_1_5 - 2 E_3_0_5 + 2 y_LC_2_1
 <= 2
LC_ONLYIF_LB_2_1_2_3: - E_2_1_2 - E_2_1_3 + 2 E_2_2_3 - 2 E_3_2_3 + 2 y_LC_2_1
 <= 2
LC_ONLYIF_LB_2_1_2_4: - E_2_1_2 - E_2_1_4 + 2 E_2_2_4 - 2 E_3_2_4 + 2 y_LC_2_1
 <= 2
LC_ONLYIF_LB_2_1_2_5: - E_2_1_2 - E_2_1_5 + 2 E_2_2_5 - 2 E_3_2_5 + 2 y_LC_2_1
 <= 2
LC_ONLYIF_LB_2_1_3_4: - E_2_1_3 - E_2_1_4 + 2 E_2_3_4 - 2 E_3_3_4 + 2 y_LC_2_1
 <= 2
LC_ONLYIF_LB_2_1_3_5: - E_2_1_3 - E_2_1_5 + 2 E_2_3_5 - 2 E_3_3_5 + 2 y_LC_2_1
 <= 2
LC_ONLYIF_LB_2_1_4_5: - E_2_1_4 - E_2_1_5 + 2 E_2_4_5 - 2 E_3_4_5 + 2 y_LC_2_1
 <= 2
LC_ONLYIF_LB_2_2_0_1: 2 E_2_0_1 - E_2_0_2 - E_2_1_2 - 2 E_3_0_1 + 2 y_LC_2_2
 <= 2
LC_ONLYIF_LB_2_2_0_3: - E_2_0_2 + 2 E_2_0_3 - E_2_2_3 - 2 E_3_0_3 + 2 y_LC_2_2
 <= 2
LC_ONLYIF_LB_2_2_0_4: - E_2_0_2 + 2 E_2_0_4 - E_2_2_4 - 2 E_3_0_4 + 2 y_LC_2_2
 <= 2
LC_ONLYIF_LB_2_2_0_5: - E_2_0_2 + 2 E_2_0_5 - E_2_2_5 - 2 E_3_0_5 + 2 y_LC_2_2
 <= 2
LC_ONLYIF_LB_2_2_1_3: - E_2_1_2 + 2 E_2_1_3 - E_2_2_3 - 2 E_3_1_3 + 2 y_LC_2_2
 <= 2
LC_ONLYIF_LB_2_2_1_4: - E_2_1_2 + 2 E_2_1_4 - E_2_2_4 - 2 E_3_1_4 + 2 y_LC_2_2
 <= 2
LC_ONLYIF_LB_2_2_1_5: - E_2_1_2 + 2 E_2_1_5 - E_2_2_5 - 2 E_3_1_5 + 2 y_LC_2_2
 <= 2
LC_ONLYIF_LB_2_2_3_4: - E_2_2_3 - E_2_2_4 + 2 E_2_3_4 - 2 E_3_3_4 + 2 y_LC_2_2
 <= 2
LC_ONLYIF_LB_2_2_3_5: - E_2_2_3 - E_2_2_5 + 2 E_2_3_5 - 2 E_3_3_5 + 2 y_LC_2_2
 <= 2
LC_ONLYIF_LB_2_2_4_5: - E_2_2_4 - E_2_2_5 + 2 E_2_4_5 - 2 E_3_4_5 + 2 y_LC_2_2
 <= 2
LC_ONLYIF_LB_2_3_0_1: 2 E_2_0_1 - E_2_0_3 - E_2_1_3 - 2 E_3_0_1 + 2 y_LC_2_3
 <= 2
LC_ONLYIF_LB_2_3_0_2: 2 E_2_0_2 - E_2_0_3 - E_2_2_3 - 2 E_3_0_2 + 2 y_LC_2_3
 <= 2
LC_ONLYIF_LB_2_3_0_4: - E_2_0_3 + 2 E_2_0_4 - E_2_3_4 - 2 E_3_0_4 + 2 y_LC_2_3
 <= 2
LC_ONLYIF_LB_2_3_0_5: - E_2_0_3 + 2 E_2_0_5 - E_2_3_5 - 2 E_3_0_5 + 2 y_LC_2_3
 <= 2
LC_ONLYIF_LB_2_3_1_2: 2 E_2_1_2 - E_2_1_3 - E_2_2_3 - 2 E_3_1_2 + 2 y_LC_2_3
 <= 2
LC_ONLYIF_LB_2_3_1_4: - E_2_1_3 + 2 E_2_1_4 - E_2_3_4 - 2 E_3_1_4 + 2 y_LC_2_3
 <= 2
LC_ONLYIF_LB_2_3_1_5: - E_2_1_3 + 2 E_2_1_5 - E_2_3_5 - 2 E_3_1_5 + 2 y_LC_2_3
 <= 2
LC_ONLYIF_LB_2_3_2_4: - E_2_2_3 + 2 E_2_2_4 - E_2_3_4 - 2 E_3_2_4 + 2 y_LC_2_3
 <= 2
LC_ONLYIF_LB_2_3_2_5: - E_2_2_3 + 2 E_2_2_5 - E_2_3_5 - 2 E_3_2_5 + 2 y_LC_2_3
 <= 2
LC_ONLYIF_LB_2_3_4_5: - E_2_3_4 - E_2_3_5 + 2 E_2_4_5 - 2 E_3_4_5 + 2 y_LC_2_3
 <= 2
LC_ONLYIF_LB_2_4_0_1: 2 E_2_0_1 - E_2_0_4 - E_2_1_4 - 2 E_3_0_1 + 2 y_LC_2_4
 <= 2
LC_ONLYIF_LB_2_4_0_2: 2 E_2_0_2 - E_2_0_4 - E_2_2_4 - 2 E_3_0_2 + 2 y_LC_2_4
 <= 2
LC_ONLYIF_LB_2_4_0_3: 2 E_2_0_3 - E_2_0_4 - E_2_3_4 - 2 E_3_0_3 + 2 y_LC_2_4
 <= 2
LC_ONLYIF_LB_2_4_0_5: - E_2_0_4 + 2 E_2_0_5 - E_2_4_5 - 2 E_3_0_5 + 2 y_LC_2_4
 <= 2
LC_ONLYIF_LB_2_4_1_2: 2 E_2_1_2 - E_2_1_4 - E_2_2_4 - 2 E_3_1_2 + 2 y_LC_2_4
 <= 2
LC_ONLYIF_LB_2_4_1_3: 2 E_2_1_3 - E_2_1_4 - E_2_3_4 - 2 E_3_1_3 + 2 y_LC_2_4
 <= 2
LC_ONLYIF_LB_2_4_1_5: - E_2_1_4 + 2 E_2_1_5 - E_2_4_5 - 2 E_3_1_5 + 2 y_LC_2_4
 <= 2
LC_ONLYIF_LB_2_4_2_3: 2 E_2_2_3 - E_2_2_4 - E_2_3_4 - 2 E_3_2_3 + 2 y_LC_2_4
 <= 2
LC_ONLYIF_LB_2_4_2_5: - E_2_2_4 + 2 E_2_2_5 - E_2_4_5 - 2 E_3_2_5 + 2 y_LC_2_4
 <= 2
LC_ONLYIF_LB_2_4_3_5: - E_2_3_4 + 2 E_2_3_5 - E_2_4_5 - 2 E_3_3_5 + 2 y_LC_2_4
 <= 2
LC_ONLYIF_LB_2_5_0_1: 2 E_2_0_1 - E_2_0_5 - E_2_1_5 - 2 E_3_0_1 + 2 y_LC_2_5
 <= 2
LC_ONLYIF_LB_2_5_0_2: 2 E_2_0_2 - E_2_0_5 - E_2_2_5 - 2 E_3_0_2 + 2 y_LC_2_5
 <= 2
LC_ONLYIF_LB_2_5_0_3: 2 E_2_0_3 - E_2_0_5 - E_2_3_5 - 2 E_3_0_3 + 2 y_LC_2_5
 <= 2
LC_ONLYIF_LB_2_5_0_4: 2 E_2_0_4 - E_2_0_5 - E_2_4_5 - 2 E_3_0_4 + 2 y_LC_2_5
 <= 2
LC_ONLYIF_LB_2_5_1_2: 2 E_2_1_2 - E_2_1_5 - E_2_2_5 - 2 E_3_1_2 + 2 y_LC_2_5
 <= 2
LC_ONLYIF_LB_2_5_1_3: 2 E_2_1_3 - E_2_1_5 - E_2_3_5 - 2 E_3_1_3 + 2 y_LC_2_5
 <= 2
LC_ONLYIF_LB_2_5_1_4: 2 E_2_1_4 - E_2_1_5 - E_2_4_5 - 2 E_3_1_4 + 2 y_LC_2_5
 <= 2
LC_ONLYIF_LB_2_5_2_3: 2 E_2_2_3 - E_2_2_5 - E_2_3_5 - 2 E_3_2_3 + 2 y_LC_2_5
 <= 2
LC_ONLYIF_LB_2_5_2_4: 2 E_2_2_4 - E_2_2_5 - E_2_4_5 - 2 E_3_2_4 + 2 y_LC_2_5
 <= 2
LC_ONLYIF_LB_2_5_3_4: 2 E_2_3_4 - E_2_3_5 - E_2_4_5 - 2 E_3_3_4 + 2 y_LC_2_5
 <= 2
LC_ONLYIF_LB_3_0_1_2: - E_3_0_1 - E_3_0_2 + 2 E_3_1_2 - 2 E_4_1_2 + 2 y_LC_3_0
 <= 2
LC_ONLYIF_LB_3_0_1_3: - E_3_0_1 - E_3_0_3 + 2 E_3_1_3 - 2 E_4_1_3 + 2 y_LC_3_0
 <= 2
LC_ONLYIF_LB_3_0_1_4: - E_3_0_1 - E_3_0_4 + 2 E_3_1_4 - 2 E_4_1_4 + 2 y_LC_3_0
 <= 2
LC_ONLYIF_LB_3_0_1_5: - E_3_0_1 - E_3_0_5 + 2 E_3_1_5 - 2 E_4_1_5 + 2 y_LC_3_0
 <= 2
LC_ONLYIF_LB_3_0_2_3: - E_3_0_2 - E_3_0_3 + 2 E_3_2_3 - 2 E_4_2_3 + 2 y_LC_3_0
 <= 2
LC_ONLYIF_LB_3_0_2_4: - E_3_0_2 - E_3_0_4 + 2 E_3_2_4 - 2 E_4_2_4 + 2 y_LC_3_0
 <= 2
LC_ONLYIF_LB_3_0_2_5: - E_3_0_2 - E_3_0_5 + 2 E_3_2_5 - 2 E_4_2_5 + 2 y_LC_3_0
 <= 2
LC_ONLYIF_LB_3_0_3_4: - E_3_0_3 - E_3_0_4 + 2 E_3_3_4 - 2 E_4_3_4 + 2 y_LC_3_0
 <= 2
LC_ONLYIF_LB_3_0_3_5: - E_3_0_3 - E_3_0_5 + 2 E_3_3_5 - 2 E_4_3_5 + 2 y_LC_3_0
 <= 2
LC_ONLYIF_LB_3_0_4_5: - E_3_0_4 - E_3_0_5 + 2 E_3_4_5 - 2 E_4_4_5 + 2 y_LC_3_0
 <= 2
LC_ONLYIF_LB_3_1_0_2: - E_3_0_1 + 2 E_3_0_2 - E_3_1_2 - 2 E_4_0_2 + 2 y_LC_3_1
 <= 2
LC_ONLYIF_LB_3_1_0_3: - E_3_0_1 + 2 E_3_0_3 - E_3_1_3 - 2 E_4_0_3 + 2 y_LC_3_1
 <= 2
LC_ONLYIF_LB_3_1_0_4: - E_3_0_1 + 2 E_3_0_4 - E_3_1_4 - 2 E_4_0_4 + 2 y_LC_3_1
 <= 2
LC_ONLYIF_LB_3_1_0_5: - E_3_0_1 + 2 E_3_0_5 - E_3_1_5 - 2 E_4_0_5 + 2 y_LC_3_1
 <= 2
LC_ONLYIF_LB_3_1_2_3: - E_3_1_2 - E_3_1_3 + 2 E_3_2_3 - 2 E_4_2_3 + 2 y_LC_3_1
 <= 2
LC_ONLYIF_LB_3_1_2_4: - E_3_1_2 - E_3_1_4 + 2 E_3_2_4 - 2 E_4_2_4 + 2 y_LC_3_1
 <= 2
LC_ONLYIF_LB_3_1_2_5: - E_3_1_2 - E_3_1_5 + 2 E_3_2_5 - 2 E_4_2_5 + 2 y_LC_3_1
 <= 2
LC_ONLYIF_LB_3_1_3_4: - E_3_1_3 - E_3_1_4 + 2 E_3_3_4 - 2 E_4_3_4 + 2 y_LC_3_1
 <= 2
LC_ONLYIF_LB_3_1_3_5: - E_3_1_3 - E_3_1_5 + 2 E_3_3_5 - 2 E_4_3_5 + 2 y_LC_3_1
 <= 2
LC_ONLYIF_LB_3_1_4_5: - E_3_1_4 - E_3_1_5 + 2 E_3_4_5 - 2 E_4_4_5 + 2 y_LC_3_1
 <= 2
LC_ONLYIF_LB_3_2_0_1: 2 E_3_0_1 - E_3_0_2 - E_3_1_2 - 2 E_4_0_1 + 2 y_LC_3_2
 <= 2
LC_ONLYIF_LB_3_2_0_3: - E_3_0_2 + 2 E_3_0_3 - E_3_2_3 - 2 E_4_0_3 + 2 y_LC_3_2
 <= 2
LC_ONLYIF_LB_3_2_0_4: - E_3_0_2 + 2 E_3_0_4 - E_3_2_4 - 2 E_4_0_4 + 2 y_LC_3_2
 <= 2
LC_ONLYIF_LB_3_2_0_5: - E_3_0_2 + 2 E_3_0_5 - E_3_2_5 - 2 E_4_0_5 + 2 y_LC_3_2
 <= 2
LC_ONLYIF_LB_3_2_1_3: - E_3_1_2 + 2 E_3_1_3 - E_3_2_3 - 2 E_4_1_3 + 2 y_LC_3_2
 <= 2
LC_ONLYIF_LB_3_2_1_4: - E_3_1_2 + 2 E_3_1_4 - E_3_2_4 - 2 E_4_1_4 + 2 y_LC_3_2
 <= 2
LC_ONLYIF_LB_3_2_1_5: - E_3_1_2 + 2 E_3_1_5 - E_3_2_5 - 2 E_4_1_5 + 2 y_LC_3_2
 <= 2
LC_ONLYIF_LB_3_2_3_4: - E_3_2_3 - E_3_2_4 + 2 E_3_3_4 - 2 E_4_3_4 + 2 y_LC_3_2
 <= 2
LC_ONLYIF_LB_3_2_3_5: - E_3_2_3 - E_3_2_5 + 2 E_3_3_5 - 2 E_4_3_5 + 2 y_LC_3_2
 <= 2
LC_ONLYIF_LB_3_2_4_5: - E_3_2_4 - E_3_2_5 + 2 E_3_4_5 - 2 E_4_4_5 + 2 y_LC_3_2
 <= 2
LC_ONLYIF_LB_3_3_0_1: 2 E_3_0_1 - E_3_0_3 - E_3_1_3 - 2 E_4_0_1 + 2 y_LC_3_3
 <= 2
LC_ONLYIF_LB_3_3_0_2: 2 E_3_0_2 - E_3_0_3 - E_3_2_3 - 2 E_4_0_2 + 2 y_LC_3_3
 <= 2
LC_ONLYIF_LB_3_3_0_4: - E_3_0_3 + 2 E_3_0_4 - E_3_3_4 - 2 E_4_0_4 + 2 y_LC_3_3
 <= 2
LC_ONLYIF_LB_3_3_0_5: - E_3_0_3 + 2 E_3_0_5 - E_3_3_5 - 2 E_4_0_5 + 2 y_LC_3_3
 <= 2
LC_ONLYIF_LB_3_3_1_2: 2 E_3_1_2 - E_3_1_3 - E_3_2_3 - 2 E_4_1_2 + 2 y_LC_3_3
 <= 2
LC_ONLYIF_LB_3_3_1_4: - E_3_1_3 + 2 E_3_1_4 - E_3_3_4 - 2 E_4_1_4 + 2 y_LC_3_3
 <= 2
LC_ONLYIF_LB_3_3_1_5: - E_3_1_3 + 2 E_3_1_5 - E_3_3_5 - 2 E_4_1_5 + 2 y_LC_3_3
 <= 2
LC_ONLYIF_LB_3_3_2_4: - E_3_2_3 + 2 E_3_2_4 - E_3_3_4 - 2 E_4_2_4 + 2 y_LC_3_3
 <= 2
LC_ONLYIF_LB_3_3_2_5: - E_3_2_3 + 2 E_3_2_5 - E_3_3_5 - 2 E_4_2_5 + 2 y_LC_3_3
 <= 2
LC_ONLYIF_LB_3_3_4_5: - E_3_3_4 - E_3_3_5 + 2 E_3_4_5 - 2 E_4_4_5 + 2 y_LC_3_3
 <= 2
LC_ONLYIF_LB_3_4_0_1: 2 E_3_0_1 - E_3_0_4 - E_3_1_4 - 2 E_4_0_1 + 2 y_LC_3_4
 <= 2
LC_ONLYIF_LB_3_4_0_2: 2 E_3_0_2 - E_3_0_4 - E_3_2_4 - 2 E_4_0_2 + 2 y_LC_3_4
 <= 2
LC_ONLYIF_LB_3_4_0_3: 2 E_3_0_3 - E_3_0_4 - E_3_3_4 - 2 E_4_0_3 + 2 y_LC_3_4
 <= 2
LC_ONLYIF_LB_3_4_0_5: - E_3_0_4 + 2 E_3_0_5 - E_3_4_5 - 2 E_4_0_5 + 2 y_LC_3_4
 <= 2
LC_ONLYIF_LB_3_4_1_2: 2 E_3_1_2 - E_3_1_4 - E_3_2_4 - 2 E_4_1_2 + 2 y_LC_3_4
 <= 2
LC_ONLYIF_LB_3_4_1_3: 2 E_3_1_3 - E_3_1_4 - E_3_3_4 - 2 E_4_1_3 + 2 y_LC_3_4
 <= 2
LC_ONLYIF_LB_3_4_1_5: - E_3_1_4 + 2 E_3_1_5 - E_3_4_5 - 2 E_4_1_5 + 2 y_LC_3_4
 <= 2
LC_ONLYIF_LB_3_4_2_3: 2 E_3_2_3 - E_3_2_4 - E_3_3_4 - 2 E_4_2_3 + 2 y_LC_3_4
 <= 2
LC_ONLYIF_LB_3_4_2_5: - E_3_2_4 + 2 E_3_2_5 - E_3_4_5 - 2 E_4_2_5 + 2 y_LC_3_4
 <= 2
LC_ONLYIF_LB_3_4_3_5: - E_3_3_4 + 2 E_3_3_5 - E_3_4_5 - 2 E_4_3_5 + 2 y_LC_3_4
 <= 2
LC_ONLYIF_LB_3_5_0_1: 2 E_3_0_1 - E_3_0_5 - E_3_1_5 - 2 E_4_0_1 + 2 y_LC_3_5
 <= 2
LC_ONLYIF_LB_3_5_0_2: 2 E_3_0_2 - E_3_0_5 - E_3_2_5 - 2 E_4_0_2 + 2 y_LC_3_5
 <= 2
LC_ONLYIF_LB_3_5_0_3: 2 E_3_0_3 - E_3_0_5 - E_3_3_5 - 2 E_4_0_3 + 2 y_LC_3_5
 <= 2
LC_ONLYIF_LB_3_5_0_4: 2 E_3_0_4 - E_3_0_5 - E_3_4_5 - 2 E_4_0_4 + 2 y_LC_3_5
 <= 2
LC_ONLYIF_LB_3_5_1_2: 2 E_3_1_2 - E_3_1_5 - E_3_2_5 - 2 E_4_1_2 + 2 y_LC_3_5
 <= 2
LC_ONLYIF_LB_3_5_1_3: 2 E_3_1_3 - E_3_1_5 - E_3_3_5 - 2 E_4_1_3 + 2 y_LC_3_5
 <= 2
LC_ONLYIF_LB_3_5_1_4: 2 E_3_1_4 - E_3_1_5 - E_3_4_5 - 2 E_4_1_4 + 2 y_LC_3_5
 <= 2
LC_ONLYIF_LB_3_5_2_3: 2 E_3_2_3 - E_3_2_5 - E_3_3_5 - 2 E_4_2_3 + 2 y_LC_3_5
 <= 2
LC_ONLYIF_LB_3_5_2_4: 2 E_3_2_4 - E_3_2_5 - E_3_4_5 - 2 E_4_2_4 + 2 y_LC_3_5
 <= 2
LC_ONLYIF_LB_3_5_3_4: 2 E_3_3_4 - E_3_3_5 - E_3_4_5 - 2 E_4_3_4 + 2 y_LC_3_5
 <= 2
LC_ONLYIF_UB_0_0_1_2: - E_0_0_1 - E_0_0_2 - 2 E_0_1_2 + 2 E_1_1_2 + 2 y_LC_0_0
 <= 2
LC_ONLYIF_UB_0_0_1_3: - E_0_0_1 - E_0_0_3 - 2 E_0_1_3 + 2 E_1_1_3 + 2 y_LC_0_0
 <= 2
LC_ONLYIF_UB_0_0_1_4: - E_0_0_1 - E_0_0_4 - 2 E_0_1_4 + 2 E_1_1_4 + 2 y_LC_0_0
 <= 2
LC_ONLYIF_UB_0_0_1_5: - E_0_0_1 - E_0_0_5 - 2 E_0_1_5 + 2 E_1_1_5 + 2 y_LC_0_0
 <= 2
LC_ONLYIF_UB_0_0_2_3: - E_0_0_2 - E_0_0_3 - 2 E_0_2_3 + 2 E_1_2_3 + 2 y_LC_0_0
 <= 2
LC_ONLYIF_UB_0_0_2_4: - E_0_0_2 - E_0_0_4 - 2 E_0_2_4 + 2 E_1_2_4 + 2 y_LC_0_0
 <= 2
LC_ONLYIF_UB_0_0_2_5: - E_0_0_2 - E_0_0_5 - 2 E_0_2_5 + 2 E_1_2_5 + 2 y_LC_0_0
 <= 2
LC_ONLYIF_UB_0_0_3_4: - E_0_0_3 - E_0_0_4 - 2 E_0_3_4 + 2 E_1_3_4 + 2 y_LC_0_0
 <= 2
LC_ONLYIF_UB_0_0_3_5: - E_0_0_3 - E_0_0_5 - 2 E_0_3_5 + 2 E_1_3_5 + 2 y_LC_0_0
 <= 2
LC_ONLYIF_UB_0_0_4_5: - E_0_0_4 - E_0_0_5 - 2 E_0_4_5 + 2 E_1_4_5 + 2 y_LC_0_0
 <= 2
LC_ONLYIF_UB_0_1_0_2: - E_0_0_1 - 2 E_0_0_2 - E_0_1_2 + 2 E_1_0_2 + 2 y_LC_0_1
 <= 2
LC_ONLYIF_UB_0_1_0_3: - E_0_0_1 - 2 E_0_0_3 - E_0_1_3 + 2 E_1_0_3 + 2 y_LC_0_1
 <= 2
LC_ONLYIF_UB_0_1_0_4: - E_0_0_1 - 2 E_0_0_4 - E_0_1_4 + 2 E_1_0_4 + 2 y_LC_0_1
 <= 2
LC_ONLYIF_UB_0_1_0_5: - E_0_0_1 - 2 E_0_0_5 - E_0_1_5 + 2 E_1_0_5 + 2 y_LC_0_1
 <= 2
LC_ONLYIF_UB_0_1_2_3: - E_0_1_2 - E_0_1_3 - 2 E_0_2_3 + 2 E_1_2_3 + 2 y_LC_0_1
 <= 2
LC_ONLYIF_UB_0_1_2_4: - E_0_1_2 - E_0_1_4 - 2 E_0_2_4 + 2 E_1_2_4 + 2 y_LC_0_1
 <= 2
LC_ONLYIF_UB_0_1_2_5: - E_0_1_2 - E_0_1_5 - 2 E_0_2_5 + 2 E_1_2_5 + 2 y_LC_0_1
 <= 2
LC_ONLYIF_UB_0_1_3_4: - E_0_1_3 - E_0_1_4 - 2 E_0_3_4 + 2 E_1_3_4 + 2 y_LC_0_1
 <= 2
LC_ONLYIF_UB_0_1_3_5: - E_0_1_3 - E_0_1_5 - 2 E_0_3_5 + 2 E_1_3_5 + 2 y_LC_0_1
 <= 2
LC_ONLYIF_UB_0_1_4_5: - E_0_1_4 - E_0_1_5 - 2 E_0_4_5 + 2 E_1_4_5 + 2 y_LC_0_1
 <= 2
LC_ONLYIF_UB_0_2_0_1: - 2 E_0_0_1 - E_0_0_2 - E_0_1_2 + 2 E_1_0_1 + 2 y_LC_0_2
 <= 2
LC_ONLYIF_UB_0_2_0_3: - E_0_0_2 - 2 E_0_0_3 - E_0_2_3 + 2 E_1_0_3 + 2 y_LC_0_2
 <= 2
LC_ONLYIF_UB_0_2_0_4: - E_0_0_2 - 2 E_0_0_4 - E_0_2_4 + 2 E_1_0_4 + 2 y_LC_0_2
 <= 2
LC_ONLYIF_UB_0_2_0_5: - E_0_0_2 - 2 E_0_0_5 - E_0_2_5 + 2 E_1_0_5 + 2 y_LC_0_2
 <= 2
LC_ONLYIF_UB_0_2_1_3: - E_0_1_2 - 2 E_0_1_3 - E_0_2_3 + 2 E_1_1_3 + 2 y_LC_0_2
 <= 2
LC_ONLYIF_UB_0_2_1_4: - E_0_1_2 - 2 E_0_1_4 - E_0_2_4 + 2 E_1_1_4 + 2 y_LC_0_2
 <= 2
LC_ONLYIF_UB_0_2_1_5: - E_0_1_2 - 2 E_0_1_5 - E_0_2_5 + 2 E_1_1_5 + 2 y_LC_0_2
 <= 2
LC_ONLYIF_UB_0_2_3_4: - E_0_2_3 - E_0_2_4 - 2 E_0_3_4 + 2 E_1_3_4 + 2 y_LC_0_2
 <= 2
LC_ONLYIF_UB_0_2_3_5: - E_0_2_3 - E_0_2_5 - 2 E_0_3_5 + 2 E_1_3_5 + 2 y_LC_0_2
 <= 2
LC_ONLYIF_UB_0_2_4_5: - E_0_2_4 - E_0_2_5 - 2 E_0_4_5 + 2 E_1_4_5 + 2 y_LC_0_2
 <= 2
LC_ONLYIF_UB_0_3_0_1: - 2 E_0_0_1 - E_0_0_3 - E_0_1_3 + 2 E_1_0_1 + 2 y_LC_0_3
 <= 2
LC_ONLYIF_UB_0_3_0_2: - 2 E_0_0_2 - E_0_0_3 - E_0_2_3 + 2 E_1_0_2 + 2 y_LC_0_3
 <= 2
LC_ONLYIF_UB_0_3_0_4: - E_0_0_3 - 2 E_0_0_4 - E_0_3_4 + 2 E_1_0_4 + 2 y_LC_0_3
 <= 2
LC_ONLYIF_UB_0_3_0_5: - E_0_0_3 - 2 E_0_0_5 - E_0_3_5 + 2 E_1_0_5 + 2 y_LC_0_3
 <= 2
LC_ONLYIF_UB_0_3_1_2: - 2 E_0_1_2 - E_0_1_3 - E_0_2_3 + 2 E_1_1_2 + 2 y_LC_0_3
 <= 2
LC_ONLYIF_UB_0_3_1_4: - E_0_1_3 - 2 E_0_1_4 - E_0_3_4 + 2 E_1_1_4 + 2 y_LC_0_3
 <= 2
LC_ONLYIF_UB_0_3_1_5: - E_0_1_3 - 2 E_0_1_5 - E_0_3_5 + 2 E_1_1_5 + 2 y_LC_0_3
 <= 2
LC_ONLYIF_UB_0_3_2_4: - E_0_2_3 - 2 E_0_2_4 - E_0_3_4 + 2 E_1_2_4 + 2 y_LC_0_3
 <= 2
LC_ONLYIF_UB_0_3_2_5: - E_0_2_3 - 2 E_0_2_5 - E_0_3_5 + 2 E_1_2_5 + 2 y_LC_0_3
 <= 2
LC_ONLYIF_UB_0_3_4_5: - E_0_3_4 - E_0_3_5 - 2 E_0_4_5 + 2 E_1_4_5 + 2 y_LC_0_3
 <= 2
LC_ONLYIF_UB_0_4_0_1: - 2 E_0_0_1 - E_0_0_4 - E_0_1_4 + 2 E_1_0_1 + 2 y_LC_0_4
 <= 2
LC_ONLYIF_UB_0_4_0_2: - 2 E_0_0_2 - E_0_0_4 - E_0_2_4 + 2 E_1_0_2 + 2 y_LC_0_4
 <= 2
LC_ONLYIF_UB_0_4_0_3: - 2 E_0_0_3 - E_0_0_4 - E_0_3_4 + 2 E_1_0_3 + 2 y_LC_0_4
 <= 2
LC_ONLYIF_UB_0_4_0_5: - E_0_0_4 - 2 E_0_0_5 - E_0_4_5 + 2 E_1_0_5 + 2 y_LC_0_4
 <= 2
LC_ONLYIF_UB_0_4_1_2: - 2 E_0_1_2 - E_0_1_4 - E_0_2_4 + 2 E_1_1_2 + 2 y_LC_0_4
 <= 2
LC_ONLYIF_UB_0_4_1_3: - 2 E_0_1_3 - E_0_1_4 - E_0_3_4 + 2 E_1_1_3 + 2 y_LC_0_4
 <= 2
LC_ONLYIF_UB_0_4_1_5: - E_0_1_4 - 2 E_0_1_5 - E_0_4_5 + 2 E_1_1_5 + 2 y_LC_0_4
 <= 2
LC_ONLYIF_UB_0_4_2_3: - 2 E_0_2_3 - E_0_2_4 - E_0_3_4 + 2 E_1_2_3 + 2 y_LC_0_4
 <= 2
LC_ONLYIF_UB_0_4_2_5: - E_0_2_4 - 2 E_0_2_5 - E_0_4_5 + 2 E_1_2_5 + 2 y_LC_0_4
 <= 2
LC_ONLYIF_UB_0_4_3_5: - E_0_3_4 - 2 E_0_3_5 - E_0_4_5 + 2 E_1_3_5 + 2 y_LC_0_4
 <= 2
LC_ONLYIF_UB_0_5_0_1: - 2 E_0_0_1 - E_0_0_5 - E_0_1_5 + 2 E_1_0_1 + 2 y_LC_0_5
 <= 2
LC_ONLYIF_UB_0_5_0_2: - 2 E_0_0_2 - E_0_0_5 - E_0_2_5 + 2 E_1_0_2 + 2 y_LC_0_5
 <= 2
LC_ONLYIF_UB_0_5_0_3: - 2 E_0_0_3 - E_0_0_5 - E_0_3_5 + 2 E_1_0_3 + 2 y_LC_0_5
 <= 2
LC_ONLYIF_UB_0_5_0_4: - 2 E_0_0_4 - E_0_0_5 - E_0_4_5 + 2 E_1_0_4 + 2 y_LC_0_5
 <= 2
LC_ONLYIF_UB_0_5_1_2: - 2 E_0_1_2 - E_0_1_5 - E_0_2_5 + 2 E_1_1_2 + 2 y_LC_0_5
 <= 2
LC_ONLYIF_UB_0_5_1_3: - 2 E_0_1_3 - E_0_1_5 - E_0_3_5 + 2 E_1_1_3 + 2 y_LC_0_5
 <= 2
LC_ONLYIF_UB_0_5_1_4: - 2 E_0_1_4 - E_0_1_5 - E_0_4_5 + 2 E_1_1_4 + 2 y_LC_0_5
 <= 2
LC_ONLYIF_UB_0_5_2_3: - 2 E_0_2_3 - E_0_2_5 - E_0_3_5 + 2 E_1_2_3 + 2 y_LC_0_5
 <= 2
LC_ONLYIF_UB_0_5_2_4: - 2 E_0_2_4 - E_0_2_5 - E_0_4_5 + 2 E_1_2_4 + 2 y_LC_0_5
 <= 2
LC_ONLYIF_UB_0_5_3_4: - 2 E_0_3_4 - E_0_3_5 - E_0_4_5 + 2 E_1_3_4 + 2 y_LC_0_5
 <= 2
LC_ONLYIF_UB_1_0_1_2: - E_1_0_1 - E_1_0_2 - 2 E_1_1_2 + 2 E_2_1_2 + 2 y_LC_1_0
 <= 2
LC_ONLYIF_UB_1_0_1_3: - E_1_0_1 - E_1_0_3 - 2 E_1_1_3 + 2 E_2_1_3 + 2 y_LC_1_0
 <= 2
LC_ONLYIF_UB_1_0_1_4: - E_1_0_1 - E_1_0_4 - 2 E_1_1_4 + 2 E_2_1_4 + 2 y_LC_1_0
 <= 2
LC_ONLYIF_UB_1_0_1_5: - E_1_0_1 - E_1_0_5 - 2 E_1_1_5 + 2 E_2_1_5 + 2 y_LC_1_0
 <= 2
LC_ONLYIF_UB_1_0_2_3: - E_1_0_2 - E_1_0_3 - 2 E_1_2_3 + 2 E_2_2_3 + 2 y_LC_1_0
 <= 2
LC_ONLYIF_UB_1_0_2_4: - E_1_0_2 - E_1_0_4 - 2 E_1_2_4 + 2 E_2_2_4 + 2 y_LC_1_0
 <= 2
LC_ONLYIF_UB_1_0_2_5: - E_1_0_2 - E_1_0_5 - 2 E_1_2_5 + 2 E_2_2_5 + 2 y_LC_1_0
 <= 2
LC_ONLYIF_UB_1_0_3_4: - E_1_0_3 - E_1_0_4 - 2 E_1_3_4 + 2 E_2_3_4 + 2 y_LC_1_0
 <= 2
LC_ONLYIF_UB_1_0_3_5: - E_1_0_3 - E_1_0_5 - 2 E_1_3_5 + 2 E_2_3_5 + 2 y_LC_1_0
 <= 2
LC_ONLYIF_UB_1_0_4_5: - E_1_0_4 - E_1_0_5 - 2 E_1_4_5 + 2 E_2_4_5 + 2 y_LC_1_0
 <= 2
LC_ONLYIF_UB_1_1_0_2: - E_1_0_1 - 2 E_1_0_2 - E_1_1_2 + 2 E_2_0_2 + 2 y_LC_1_1
 <= 2
LC_ONLYIF_UB_1_1_0_3: - E_1_0_1 - 2 E_1_0_3 - E_1_1_3 + 2 E_2_0_3 + 2 y_LC_1_1
 <= 2
LC_ONLYIF_UB_1_1_0_4: - E_1_0_1 - 2 E_1_0_4 - E_1_1_4 + 2 E_2_0_4 + 2 y_LC_1_1
 <= 2
LC_ONLYIF_UB_1_1_0_5: - E_1_0_1 - 2 E_1_0_5 - E_1_1_5 + 2 E_2_0_5 + 2 y_LC_1_1
 <= 2
LC_ONLYIF_UB_1_1_2_3: - E_1_1_2 - E_1_1_3 - 2 E_1_2_3 + 2 E_2_2_3 + 2 y_LC_1_1
 <= 2
LC_ONLYIF_UB_1_1_2_4: - E_1_1_2 - E_1_1_4 - 2 E_1_2_4 + 2 E_2_2_4 + 2 y_LC_1_1
 <= 2
LC_ONLYIF_UB_1_1_2_5: - E_1_1_2 - E_1_1_5 - 2 E_1_2_5 + 2 E_2_2_5 + 2 y_LC_1_1
 <= 2
LC_ONLYIF_UB_1_1_3_4: - E_1_1_3 - E_1_1_4 - 2 E_1_3_4 + 2 E_2_3_4 + 2 y_LC_1_1
 <= 2
LC_ONLYIF_UB_1_1_3_5: - E_1_1_3 - E_1_1_5 - 2 E_1_3_5 + 2 E_2_3_5 + 2 y_LC_1_1
 <= 2
LC_ONLYIF_UB_1_1_4_5: - E_1_1_4 - E_1_1_5 - 2 E_1_4_5 + 2 E_2_4_5 + 2 y_LC_1_1
 <= 2
LC_ONLYIF_UB_1_2_0_1: - 2 E_1_0_1 - E_1_0_2 - E_1_1_2 + 2 E_2_0_1 + 2 y_LC_1_2
 <= 2
LC_ONLYIF_UB_1_2_0_3: - E_1_0_2 - 2 E_1_0_3 - E_1_2_3 + 2 E_2_0_3 + 2 y_LC_1_2
 <= 2
LC_ONLYIF_UB_1_2_0_4: - E_1_0_2 - 2 E_1_0_4 - E_1_2_4 + 2 E_2_0_4 + 2 y_LC_1_2
 <= 2
LC_ONLYIF_UB_1_2_0_5: - E_1_0_2 - 2 E_1_0_5 - E_1_2_5 + 2 E_2_0_5 + 2 y_LC_1_2
 <= 2
LC_ONLYIF_UB_1_2_1_3: - E_1_1_2 - 2 E_1_1_3 - E_1_2_3 + 2 E_2_1_3 + 2 y_LC_1_2
 <= 2
LC_ONLYIF_UB_1_2_1_4: - E_1_1_2 - 2 E_1_1_4 - E_1_2_4 + 2 E_2_1_4 + 2 y_LC_1_2
 <= 2
LC_ONLYIF_UB_1_2_1_5: - E_1_1_2 - 2 E_1_1_5 - E_1_2_5 + 2 E_2_1_5 + 2 y_LC_1_2
 <= 2
LC_ONLYIF_UB_1_2_3_4: - E_1_2_3 - E_1_2_4 - 2 E_1_3_4 + 2 E_2_3_4 + 2 y_LC_1_2
 <= 2
LC_ONLYIF_UB_1_2_3_5: - E_1_2_3 - E_1_2_5 - 2 E_1_3_5 + 2 E_2_3_5 + 2 y_LC_1_2
 <= 2
LC_ONLYIF_UB_1_2_4_5: - E_1_2_4 - E_1_2_5 - 2 E_1_4_5 + 2 E_2_4_5 + 2 y_LC_1_2
 <= 2
LC_ONLYIF_UB_1_3_0_1: - 2 E_1_0_1 - E_1_0_3 - E_1_1_3 + 2 E_2_0_1 + 2 y_LC_1_3
 <= 2
LC_ONLYIF_UB_1_3_0_2: - 2 E_1_0_2 - E_1_0_3 - E_1_2_3 + 2 E_2_0_2 + 2 y_LC_1_3
 <= 2
LC_ONLYIF_UB_1_3_0_4: - E_1_0_3 - 2 E_1_0_4 - E_1_3_4 + 2 E_2_0_4 + 2 y_LC_1_3
 <= 2
LC_ONLYIF_UB_1_3_0_5: - E_1_0_3 - 2 E_1_0_5 - E_1_3_5 + 2 E_2_0_5 + 2 y_LC_1_3
 <= 2
LC_ONLYIF_UB_1_3_1_2: - 2 E_1_1_2 - E_1_1_3 - E_1_2_3 + 2 E_2_1_2 + 2 y_LC_1_3
 <= 2
LC_ONLYIF_UB_1_3_1_4: - E_1_1_3 - 2 E_1_1_4 - E_1_3_4 + 2 E_2_1_4 + 2 y_LC_1_3
 <= 2
LC_ONLYIF_UB_1_3_1_5: - E_1_1_3 - 2 E_1_1_5 - E_1_3_5 + 2 E_2_1_5 + 2 y_LC_1_3
 <= 2
LC_ONLYIF_UB_1_3_2_4: - E_1_2_3 - 2 E_1_2_4 - E_1_3_4 + 2 E_2_2_4 + 2 y_LC_1_3
 <= 2
LC_ONLYIF_UB_1_3_2_5: - E_1_2_3 - 2 E_1_2_5 - E_1_3_5 + 2 E_2_2_5 + 2 y_LC_1_3
 <= 2
LC_ONLYIF_UB_1_3_4_5: - E_1_3_4 - E_1_3_5 - 2 E_1_4_5 + 2 E_2_4_5 + 2 y_LC_1_3
 <= 2
LC_ONLYIF_UB_1_4_0_1: - 2 E_1_0_1 - E_1_0_4 - E_1_1_4 + 2 E_2_0_1 + 2 y_LC_1_4
 <= 2
LC_ONLYIF_UB_1_4_0_2: - 2 E_1_0_2 - E_1_0_4 - E_1_2_4 + 2 E_2_0_2 + 2 y_LC_1_4
 <= 2
LC_ONLYIF_UB_1_4_0_3: - 2 E_1_0_3 - E_1_0_4 - E_1_3_4 + 2 E_2_0_3 + 2 y_LC_1_4
 <= 2
LC_ONLYIF_UB_1_4_0_5: - E_1_0_4 - 2 E_1_0_5 - E_1_4_5 + 2 E_2_0_5 + 2 y_LC_1_4
 <= 2
LC_ONLYIF_UB_1_4_1_2: - 2 E_1_1_2 - E_1_1_4 - E_1_2_4 + 2 E_2_1_2 + 2 y_LC_1_4
 <= 2
LC_ONLYIF_UB_1_4_1_3: - 2 E_1_1_3 - E_1_1_4 - E_1_3_4 + 2 E_2_1_3 + 2 y_LC_1_4
 <= 2
LC_ONLYIF_UB_1_4_1_5: - E_1_1_4 - 2 E_1_1_5 - E_1_4_5 + 2 E_2_1_5 + 2 y_LC_1_4
 <= 2
LC_ONLYIF_UB_1_4_2_3: - 2 E_1_2_3 - E_1_2_4 - E_1_3_4 + 2 E_2_2_3 + 2 y_LC_1_4
 <= 2
LC_ONLYIF_UB_1_4_2_5: - E_1_2_4 - 2 E_1_2_5 - E_1_4_5 + 2 E_2_2_5 + 2 y_LC_1_4
 <= 2
LC_ONLYIF_UB_1_4_3_5: - E_1_3_4 - 2 E_1_3_5 - E_1_4_5 + 2 E_2_3_5 + 2 y_LC_1_4
 <= 2
LC_ONLYIF_UB_1_5_0_1: - 2 E_1_0_1 - E_1_0_5 - E_1_1_5 + 2 E_2_0_1 + 2 y_LC_1_5
 <= 2
LC_ONLYIF_UB_1_5_0_2: - 2 E_1_0_2 - E_1_0_5 - E_1_2_5 + 2 E_2_0_2 + 2 y_LC_1_5
 <= 2
LC_ONLYIF_UB_1_5_0_3: - 2 E_1_0_3 - E_1_0_5 - E_1_3_5 + 2 E_2_0_3 + 2 y_LC_1_5
 <= 2
LC_ONLYIF_UB_1_5_0_4: - 2 E_1_0_4 - E_1_0_5 - E_1_4_5 + 2 E_2_0_4 + 2 y_LC_1_5
 <= 2
LC_ONLYIF_UB_1_5_1_2: - 2 E_1_1_2 - E_1_1_5 - E_1_2_5 + 2 E_2_1_2 + 2 y_LC_1_5
 <= 2
LC_ONLYIF_UB_1_5_1_3: - 2 E_1_1_3 - E_1_1_5 - E_1_3_5 + 2 E_2_1_3 + 2 y_LC_1_5
 <= 2
LC_ONLYIF_UB_1_5_1_4: - 2 E_1_1_4 - E_1_1_5 - E_1_4_5 + 2 E_2_1_4 + 2 y_LC_1_5
 <= 2
LC_ONLYIF_UB_1_5_2_3: - 2 E_1_2_3 - E_1_2_5 - E_1_3_5 + 2 E_2_2_3 + 2 y_LC_1_5
 <= 2
LC_ONLYIF_UB_1_5_2_4: - 2 E_1_2_4 - E_1_2_5 - E_1_4_5 + 2 E_2_2_4 + 2 y_LC_1_5
 <= 2
LC_ONLYIF_UB_1_5_3_4: - 2 E_1_3_4 - E_1_3_5 - E_1_4_5 + 2 E_2_3_4 + 2 y_LC_1_5
 <= 2
LC_ONLYIF_UB_2_0_1_2: - E_2_0_1 - E_2_0_2 - 2 E_2_1_2 + 2 E_3_1_2 + 2 y_LC_2_0
 <= 2
LC_ONLYIF_UB_2_0_1_3: - E_2_0_1 - E_2_0_3 - 2 E_2_1_3 + 2 E_3_1_3 + 2 y_LC_2_0
 <= 2
LC_ONLYIF_UB_2_0_1_4: - E_2_0_1 - E_2_0_4 - 2 E_2_1_4 + 2 E_3_1_4 + 2 y_LC_2_0
 <= 2
LC_ONLYIF_UB_2_0_1_5: - E_2_0_1 - E_2_0_5 - 2 E_2_1_5 + 2 E_3_1_5 + 2 y_LC_2_0
 <= 2
LC_ONLYIF_UB_2_0_2_3: - E_2_0_2 - E_2_0_3 - 2 E_2_2_3 + 2 E_3_2_3 + 2 y_LC_2_0
 <= 2
LC_ONLYIF_UB_2_0_2_4: - E_2_0_2 - E_2_0_4 - 2 E_2_2_4 + 2 E_3_2_4 + 2 y_LC_2_0
 <= 2
LC_ONLYIF_UB_2_0_2_5: - E_2_0_2 - E_2_0_5 - 2 E_2_2_5 + 2 E_3_2_5 + 2 y_LC_2_0
 <= 2
LC_ONLYIF_UB_2_0_3_4: - E_2_0_3 - E_2_0_4 - 2 E_2_3_4 + 2 E_3_3_4 + 2 y_LC_2_0
 <= 2
LC_ONLYIF_UB_2_0_3_5: - E_2_0_3 - E_2_0_5 - 2 E_2_3_5 + 2 E_3_3_5 + 2 y_LC_2_0
 <= 2
LC_ONLYIF_UB_2_0_4_5: - E_2_0_4 - E_2_0_5 - 2 E_2_4_5 + 2 E_3_4_5 + 2 y_LC_2_0
 <= 2
LC_ONLYIF_UB_2_1_0_2: - E_2_0_1 - 2 E_2_0_2 - E_2_1_2 + 2 E_3_0_2 + 2 y_LC_2_1
 <= 2
LC_ONLYIF_UB_2_1_0_3: - E_2_0_1 - 2 E_2_0_3 - E_2_1_3 + 2 E_3_0_3 + 2 y_LC_2_1
 <= 2
LC_ONLYIF_UB_2_1_0_4: - E_2_0_1 - 2 E_2_0_4 - E_2_1_4 + 2 E_3_0_4 + 2 y_LC_2_1
 <= 2
LC_ONLYIF_UB_2_1_0_5: - E_2_0_1 - 2 E_2_0_5 - E_2_1_5 + 2 E_3_0_5 + 2 y_LC_2_1
 <= 2
LC_ONLYIF_UB_2_1_2_3: - E_2_1_2 - E_2_1_3 - 2 E_2_2_3 + 2 E_3_2_3 + 2 y_LC_2_1
 <= 2
LC_ONLYIF_UB_2_1_2_4: - E_2_1_2 - E_2_1_4 - 2 E_2_2_4 + 2 E_3_2_4 + 2 y_LC_2_1
 <= 2
LC_ONLYIF_UB_2_1_2_5: - E_2_1_2 - E_2_1_5 - 2 E_2_2_5 + 2 E_3_2_5 + 2 y_LC_2_1
 <= 2
LC_ONLYIF_UB_2_1_3_4: - E_2_1_3 - E_2_1_4 - 2 E_2_3_4 + 2 E_3_3_4 + 2 y_LC_2_1
 <= 2
LC_ONLYIF_UB_2_1_3_5: - E_2_1_3 - E_2_1_5 - 2 E_2_3_5 + 2 E_3_3_5 + 2 y_LC_2_1
 <= 2
LC_ONLYIF_UB_2_1_4_5: - E_2_1_4 - E_2_1_5 - 2 E_2_4_5 + 2 E_3_4_5 + 2 y_LC_2_1
 <= 2
LC_ONLYIF_UB_2_2_0_1: - 2 E_2_0_1 - E_2_0_2 - E_2_1_2 + 2 E_3_0_1 + 2 y_LC_2_2
 <= 2
LC_ONLYIF_UB_2_2_0_3: - E_2_0_2 - 2 E_2_0_3 - E_2_2_3 + 2 E_3_0_3 + 2 y_LC_2_2
 <= 2
LC_ONLYIF_UB_2_2_0_4: - E_2_0_2 - 2 E_2_0_4 - E_2_2_4 + 2 E_3_0_4 + 2 y_LC_2_2
 <= 2
LC_ONLYIF_UB_2_2_0_5: - E_2_0_2 - 2 E_2_0_5 - E_2_2_5 + 2 E_3_0_5 + 2 y_LC_2_2
 <= 2
LC_ONLYIF_UB_2_2_1_3: - E_2_1_2 - 2 E_2_1_3 - E_2_2_3 + 2 E_3_1_3 + 2 y_LC_2_2
 <= 2
LC_ONLYIF_UB_2_2_1_4: - E_2_1_2 - 2 E_2_1_4 - E_2_2_4 + 2 E_3_1_4 + 2 y_LC_2_2
 <= 2
LC_ONLYIF_UB_2_2_1_5: - E_2_1_2 - 2 E_2_1_5 - E_2_2_5 + 2 E_3_1_5 + 2 y_LC_2_2
 <= 2
LC_ONLYIF_UB_2_2_3_4: - E_2_2_3 - E_2_2_4 - 2 E_2_3_4 + 2 E_3_3_4 + 2 y_LC_2_2
 <= 2
LC_ONLYIF_UB_2_2_3_5: - E_2_2_3 - E_2_2_5 - 2 E_2_3_5 + 2 E_3_3_5 + 2 y_LC_2_2
 <= 2
LC_ONLYIF_UB_2_2_4_5: - E_2_2_4 - E_2_2_5 - 2 E_2_4_5 + 2 E_3_4_5 + 2 y_LC_2_2
 <= 2
LC_ONLYIF_UB_2_3_0_1: - 2 E_2_0_1 - E_2_0_3 - E_2_1_3 + 2 E_3_0_1 + 2 y_LC_2_3
 <= 2
LC_ONLYIF_UB_2_3_0_2: - 2 E_2_0_2 - E_2_0_3 - E_2_2_3 + 2 E_3_0_2 + 2 y_LC_2_3
 <= 2
LC_ONLYIF_UB_2_3_0_4: - E_2_0_3 - 2 E_2_0_4 - E_2_3_4 + 2 E_3_0_4 + 2 y_LC_2_3
 <= 2
LC_ONLYIF_UB_2_3_0_5: - E_2_0_3 - 2 E_2_0_5 - E_2_3_5 + 2 E_3_0_5 + 2 y_LC_2_3
 <= 2
LC_ONLYIF_UB_2_3_1_2: - 2 E_2_1_2 - E_2_1_3 - E_2_2_3 + 2 E_3_1_2 + 2 y_LC_2_3
 <= 2
LC_ONLYIF_UB_2_3_1_4: - E_2_1_3 - 2 E_2_1_4 - E_2_3_4 + 2 E_3_1_4 + 2 y_LC_2_3
 <= 2
LC_ONLYIF_UB_2_3_1_5: - E_2_1_3 - 2 E_2_1_5 - E_2_3_5 + 2 E_3_1_5 + 2 y_LC_2_3
 <= 2
LC_ONLYIF_UB_2_3_2_4: - E_2_2_3 - 2 E_2_2_4 - E_2_3_4 + 2 E_3_2_4 + 2 y_LC_2_3
 <= 2
LC_ONLYIF_UB_2_3_2_5: - E_2_2_3 - 2 E_2_2_5 - E_2_3_5 + 2 E_3_2_5 + 2 y_LC_2_3
 <= 2
LC_ONLYIF_UB_2_3_4_5: - E_2_3_4 - E_2_3_5 - 2 E_2_4_5 + 2 E_3_4_5 + 2 y_LC_2_3
 <= 2
LC_ONLYIF_UB_2_4_0_1: - 2 E_2_0_1 - E_2_0_4 - E_2_1_4 + 2 E_3_0_1 + 2 y_LC_2_4
 <= 2
LC_ONLYIF_UB_2_4_0_2: - 2 E_2_0_2 - E_2_0_4 - E_2_2_4 + 2 E_3_0_2 + 2 y_LC_2_4
 <= 2
LC_ONLYIF_UB_2_4_0_3: - 2 E_2_0_3 - E_2_0_4 - E_2_3_4 + 2 E_3_0_3 + 2 y_LC_2_4
 <= 2
LC_ONLYIF_UB_2_4_0_5: - E_2_0_4 - 2 E_2_0_5 - E_2_4_5 + 2 E_3_0_5 + 2 y_LC_2_4
 <= 2
LC_ONLYIF_UB_2_4_1_2: - 2 E_2_1_2 - E_2_1_4 - E_2_2_4 + 2 E_3_1_2 + 2 y_LC_2_4
 <= 2
LC_ONLYIF_UB_2_4_1_3: - 2 E_2_1_3 - E_2_1_4 - E_2_3_4 + 2 E_3_1_3 + 2 y_LC_2_4
 <= 2
LC_ONLYIF_UB_2_4_1_5: - E_2_1_4 - 2 E_2_1_5 - E_2_4_5 + 2 E_3_1_5 + 2 y_LC_2_4
 <= 2
LC_ONLYIF_UB_2_4_2_3: - 2 E_2_2_3 - E_2_2_4 - E_2_3_4 + 2 E_3_2_3 + 2 y_LC_2_4
 <= 2
LC_ONLYIF_UB_2_4_2_5: - E_2_2_4 - 2 E_2_2_5 - E_2_4_5 + 2 E_3_2_5 + 2 y_LC_2_4
 <= 2
LC_ONLYIF_UB_2_4_3_5: - E_2_3_4 - 2 E_2_3_5 - E_2_4_5 + 2 E_3_3_5 + 2 y_LC_2_4
 <= 2
LC_ONLYIF_UB_2_5_0_1: - 2 E_2_0_1 - E_2_0_5 - E_2_1_5 + 2 E_3_0_1 + 2 y_LC_2_5
 <= 2
LC_ONLYIF_UB_2_5_0_2: - 2 E_2_0_2 - E_2_0_5 - E_2_2_5 + 2 E_3_0_2 + 2 y_LC_2_5
 <= 2
LC_ONLYIF_UB_2_5_0_3: - 2 E_2_0_3 - E_2_0_5 - E_2_3_5 + 2 E_3_0_3 + 2 y_LC_2_5
 <= 2
LC_ONLYIF_UB_2_5_0_4: - 2 E_2_0_4 - E_2_0_5 - E_2_4_5 + 2 E_3_0_4 + 2 y_LC_2_5
 <= 2
LC_ONLYIF_UB_2_5_1_2: - 2 E_2_1_2 - E_2_1_5 - E_2_2_5 + 2 E_3_1_2 + 2 y_LC_2_5
 <= 2
LC_ONLYIF_UB_2_5_1_3: - 2 E_2_1_3 - E_2_1_5 - E_2_3_5 + 2 E_3_1_3 + 2 y_LC_2_5
 <= 2
LC_ONLYIF_UB_2_5_1_4: - 2 E_2_1_4 - E_2_1_5 - E_2_4_5 + 2 E_3_1_4 + 2 y_LC_2_5
 <= 2
LC_ONLYIF_UB_2_5_2_3: - 2 E_2_2_3 - E_2_2_5 - E_2_3_5 + 2 E_3_2_3 + 2 y_LC_2_5
 <= 2
LC_ONLYIF_UB_2_5_2_4: - 2 E_2_2_4 - E_2_2_5 - E_2_4_5 + 2 E_3_2_4 + 2 y_LC_2_5
 <= 2
LC_ONLYIF_UB_2_5_3_4: - 2 E_2_3_4 - E_2_3_5 - E_2_4_5 + 2 E_3_3_4 + 2 y_LC_2_5
 <= 2
LC_ONLYIF_UB_3_0_1_2: - E_3_0_1 - E_3_0_2 - 2 E_3_1_2 + 2 E_4_1_2 + 2 y_LC_3_0
 <= 2
LC_ONLYIF_UB_3_0_1_3: - E_3_0_1 - E_3_0_3 - 2 E_3_1_3 + 2 E_4_1_3 + 2 y_LC_3_0
 <= 2
LC_ONLYIF_UB_3_0_1_4: - E_3_0_1 - E_3_0_4 - 2 E_3_1_4 + 2 E_4_1_4 + 2 y_LC_3_0
 <= 2
LC_ONLYIF_UB_3_0_1_5: - E_3_0_1 - E_3_0_5 - 2 E_3_1_5 + 2 E_4_1_5 + 2 y_LC_3_0
 <= 2
LC_ONLYIF_UB_3_0_2_3: - E_3_0_2 - E_3_0_3 - 2 E_3_2_3 + 2 E_4_2_3 + 2 y_LC_3_0
 <= 2
LC_ONLYIF_UB_3_0_2_4: - E_3_0_2 - E_3_0_4 - 2 E_3_2_4 + 2 E_4_2_4 + 2 y_LC_3_0
 <= 2
LC_ONLYIF_UB_3_0_2_5: - E_3_0_2 - E_3_0_5 - 2 E_3_2_5 + 2 E_4_2_5 + 2 y_LC_3_0
 <= 2
LC_ONLYIF_UB_3_0_3_4: - E_3_0_3 - E_3_0_4 - 2 E_3_3_4 + 2 E_4_3_4 + 2 y_LC_3_0
 <= 2
LC_ONLYIF_UB_3_0_3_5: - E_3_0_3 - E_3_0_5 - 2 E_3_3_5 + 2 E_4_3_5 + 2 y_LC_3_0
 <= 2
LC_ONLYIF_UB_3_0_4_5: - E_3_0_4 - E_3_0_5 - 2 E_3_4_5 + 2 E_4_4_5 + 2 y_LC_3_0
 <= 2
LC_ONLYIF_UB_3_1_0_2: - E_3_0_1 - 2 E_3_0_2 - E_3_1_2 + 2 E_4_0_2 + 2 y_LC_3_1
 <= 2
LC_ONLYIF_UB_3_1_0_3: - E_3_0_1 - 2 E_3_0_3 - E_3_1_3 + 2 E_4_0_3 + 2 y_LC_3_1
 <= 2
LC_ONLYIF_UB_3_1_0_4: - E_3_0_1 - 2 E_3_0_4 - E_3_1_4 + 2 E_4_0_4 + 2 y_LC_3_1
 <= 2
LC_ONLYIF_UB_3_1_0_5: - E_3_0_1 - 2 E_3_0_5 - E_3_1_5 + 2 E_4_0_5 + 2 y_LC_3_1
 <= 2
LC_ONLYIF_UB_3_1_2_3: - E_3_1_2 - E_3_1_3 - 2 E_3_2_3 + 2 E_4_2_3 + 2 y_LC_3_1
 <= 2
LC_ONLYIF_UB_3_1_2_4: - E_3_1_2 - E_3_1_4 - 2 E_3_2_4 + 2 E_4_2_4 + 2 y_LC_3_1
 <= 2
LC_ONLYIF_UB_3_1_2_5: - E_3_1_2 - E_3_1_5 - 2 E_3_2_5 + 2 E_4_2_5 + 2 y_LC_3_1
 <= 2
LC_ONLYIF_UB_3_1_3_4: - E_3_1_3 - E_3_1_4 - 2 E_3_3_4 + 2 E_4_3_4 + 2 y_LC_3_1
 <= 2
LC_ONLYIF_UB_3_1_3_5: - E_3_1_3 - E_3_1_5 - 2 E_3_3_5 + 2 E_4_3_5 + 2 y_LC_3_1
 <= 2
LC_ONLYIF_UB_3_1_4_5: - E_3_1_4 - E_3_1_5 - 2 E_3_4_5 + 2 E_4_4_5 + 2 y_LC_3_1
 <= 2
LC_ONLYIF_UB_3_2_0_1: - 2 E_3_0_1 - E_3_0_2 - E_3_1_2 + 2 E_4_0_1 + 2 y_LC_3_2
 <= 2
LC_ONLYIF_UB_3_2_0_3: - E_3_0_2 - 2 E_3_0_3 - E_3_2_3 + 2 E_4_0_3 + 2 y_LC_3_2
 <= 2
LC_ONLYIF_UB_3_2_0_4: - E_3_0_2 - 2 E_3_0_4 - E_3_2_4 + 2 E_4_0_4 + 2 y_LC_3_2
 <= 2
LC_ONLYIF_UB_3_2_0_5: - E_3_0_2 - 2 E_3_0_5 - E_3_2_5 + 2 E_4_0_5 + 2 y_LC_3_2
 <= 2
LC_ONLYIF_UB_3_2_1_3: - E_3_1_2 - 2 E_3_1_3 - E_3_2_3 + 2 E_4_1_3 + 2 y_LC_3_2
 <= 2
LC_ONLYIF_UB_3_2_1_4: - E_3_1_2 - 2 E_3_1_4 - E_3_2_4 + 2 E_4_1_4 + 2 y_LC_3_2
 <= 2
LC_ONLYIF_UB_3_2_1_5: - E_3_1_2 - 2 E_3_1_5 - E_3_2_5 + 2 E_4_1_5 + 2 y_LC_3_2
 <= 2
LC_ONLYIF_UB_3_2_3_4: - E_3_2_3 - E_3_2_4 - 2 E_3_3_4 + 2 E_4_3_4 + 2 y_LC_3_2
 <= 2
LC_ONLYIF_UB_3_2_3_5: - E_3_2_3 - E_3_2_5 - 2 E_3_3_5 + 2 E_4_3_5 + 2 y_LC_3_2
 <= 2
LC_ONLYIF_UB_3_2_4_5: - E_3_2_4 - E_3_2_5 - 2 E_3_4_5 + 2 E_4_4_5 + 2 y_LC_3_2
 <= 2
LC_ONLYIF_UB_3_3_0_1: - 2 E_3_0_1 - E_3_0_3 - E_3_1_3 + 2 E_4_0_1 + 2 y_LC_3_3
 <= 2
LC_ONLYIF_UB_3_3_0_2: - 2 E_3_0_2 - E_3_0_3 - E_3_2_3 + 2 E_4_0_2 + 2 y_LC_3_3
 <= 2
LC_ONLYIF_UB_3_3_0_4: - E_3_0_3 - 2 E_3_0_4 - E_3_3_4 + 2 E_4_0_4 + 2 y_LC_3_3
 <= 2
LC_ONLYIF_UB_3_3_0_5: - E_3_0_3 - 2 E_3_0_5 - E_3_3_5 + 2 E_4_0_5 + 2 y_LC_3_3
 <= 2
LC_ONLYIF_UB_3_3_1_2: - 2 E_3_1_2 - E_3_1_3 - E_3_2_3 + 2 E_4_1_2 + 2 y_LC_3_3
 <= 2
LC_ONLYIF_UB_3_3_1_4: - E_3_1_3 - 2 E_3_1_4 - E_3_3_4 + 2 E_4_1_4 + 2 y_LC_3_3
 <= 2
LC_ONLYIF_UB_3_3_1_5: - E_3_1_3 - 2 E_3_1_5 - E_3_3_5 + 2 E_4_1_5 + 2 y_LC_3_3
 <= 2
LC_ONLYIF_UB_3_3_2_4: - E_3_2_3 - 2 E_3_2_4 - E_3_3_4 + 2 E_4_2_4 + 2 y_LC_3_3
 <= 2
LC_ONLYIF_UB_3_3_2_5: - E_3_2_3 - 2 E_3_2_5 - E_3_3_5 + 2 E_4_2_5 + 2 y_LC_3_3
 <= 2
LC_ONLYIF_UB_3_3_4_5: - E_3_3_4 - E_3_3_5 - 2 E_3_4_5 + 2 E_4_4_5 + 2 y_LC_3_3
 <= 2
LC_ONLYIF_UB_3_4_0_1: - 2 E_3_0_1 - E_3_0_4 - E_3_1_4 + 2 E_4_0_1 + 2 y_LC_3_4
 <= 2
LC_ONLYIF_UB_3_4_0_2: - 2 E_3_0_2 - E_3_0_4 - E_3_2_4 + 2 E_4_0_2 + 2 y_LC_3_4
 <= 2
LC_ONLYIF_UB_3_4_0_3: - 2 E_3_0_3 - E_3_0_4 - E_3_3_4 + 2 E_4_0_3 + 2 y_LC_3_4
 <= 2
LC_ONLYIF_UB_3_4_0_5: - E_3_0_4 - 2 E_3_0_5 - E_3_4_5 + 2 E_4_0_5 + 2 y_LC_3_4
 <= 2
LC_ONLYIF_UB_3_4_1_2: - 2 E_3_1_2 - E_3_1_4 - E_3_2_4 + 2 E_4_1_2 + 2 y_LC_3_4
 <= 2
LC_ONLYIF_UB_3_4_1_3: - 2 E_3_1_3 - E_3_1_4 - E_3_3_4 + 2 E_4_1_3 + 2 y_LC_3_4
 <= 2
LC_ONLYIF_UB_3_4_1_5: - E_3_1_4 - 2 E_3_1_5 - E_3_4_5 + 2 E_4_1_5 + 2 y_LC_3_4
 <= 2
LC_ONLYIF_UB_3_4_2_3: - 2 E_3_2_3 - E_3_2_4 - E_3_3_4 + 2 E_4_2_3 + 2 y_LC_3_4
 <= 2
LC_ONLYIF_UB_3_4_2_5: - E_3_2_4 - 2 E_3_2_5 - E_3_4_5 + 2 E_4_2_5 + 2 y_LC_3_4
 <= 2
LC_ONLYIF_UB_3_4_3_5: - E_3_3_4 - 2 E_3_3_5 - E_3_4_5 + 2 E_4_3_5 + 2 y_LC_3_4
 <= 2
LC_ONLYIF_UB_3_5_0_1: - 2 E_3_0_1 - E_3_0_5 - E_3_1_5 + 2 E_4_0_1 + 2 y_LC_3_5
 <= 2
LC_ONLYIF_UB_3_5_0_2: - 2 E_3_0_2 - E_3_0_5 - E_3_2_5 + 2 E_4_0_2 + 2 y_LC_3_5
 <= 2
LC_ONLYIF_UB_3_5_0_3: - 2 E_3_0_3 - E_3_0_5 - E_3_3_5 + 2 E_4_0_3 + 2 y_LC_3_5
 <= 2
LC_ONLYIF_UB_3_5_0_4: - 2 E_3_0_4 - E_3_0_5 - E_3_4_5 + 2 E_4_0_4 + 2 y_LC_3_5
 <= 2
LC_ONLYIF_UB_3_5_1_2: - 2 E_3_1_2 - E_3_1_5 - E_3_2_5 + 2 E_4_1_2 + 2 y_LC_3_5
 <= 2
LC_ONLYIF_UB_3_5_1_3: - 2 E_3_1_3 - E_3_1_5 - E_3_3_5 + 2 E_4_1_3 + 2 y_LC_3_5
 <= 2
LC_ONLYIF_UB_3_5_1_4: - 2 E_3_1_4 - E_3_1_5 - E_3_4_5 + 2 E_4_1_4 + 2 y_LC_3_5
 <= 2
LC_ONLYIF_UB_3_5_2_3: - 2 E_3_2_3 - E_3_2_5 - E_3_3_5 + 2 E_4_2_3 + 2 y_LC_3_5
 <= 2
LC_ONLYIF_UB_3_5_2_4: - 2 E_3_2_4 - E_3_2_5 - E_3_4_5 + 2 E_4_2_4 + 2 y_LC_3_5
 <= 2
LC_ONLYIF_UB_3_5_3_4: - 2 E_3_3_4 - E_3_3_5 - E_3_4_5 + 2 E_4_3_4 + 2 y_LC_3_5
 <= 2
Leader_Destruction_0: L_0_0_0 + L_0_1_1 + L_0_2_2 + L_0_3_3 + L_0_4_4
 + L_0_5_5 - L_1_0_0 - L_1_1_1 - L_1_2_2 - L_1_3_3 - L_1_4_4 - L_1_5_5
 - y_CZ_active_0 - y_F_active_0 = 0
Leader_Destruction_1: L_1_0_0 + L_1_1_1 + L_1_2_2 + L_1_3_3 + L_1_4_4
 + L_1_5_5 - L_2_0_0 - L_2_1_1 - L_2_2_2 - L_2_3_3 - L_2_4_4 - L_2_5_5
 - y_CZ_active_1 - y_F_active_1 = 0
Leader_Destruction_2: L_2_0_0 + L_2_1_1 + L_2_2_2 + L_2_3_3 + L_2_4_4
 + L_2_5_5 - L_3_0_0 - L_3_1_1 - L_3_2_2 - L_3_3_3 - L_3_4_4 - L_3_5_5
 - y_CZ_active_2 - y_F_active_2 = 0
Leader_Destruction_3: L_3_0_0 + L_3_1_1 + L_3_2_2 + L_3_3_3 + L_3_4_4
 + L_3_5_5 - L_4_0_0 - L_4_1_1 - L_4_2_2 - L_4_3_3 - L_4_4_4 - L_4_5_5
 - y_CZ_active_3 - y_F_active_3 = 0
Mask_LB_0_1: - E_4_0_1 + Mask_0_1 - d_0 - d_1 >= -2
Mask_LB_0_2: - E_4_0_2 + Mask_0_2 - d_0 - d_2 >= -2
Mask_LB_0_3: - E_4_0_3 + Mask_0_3 - d_0 - d_3 >= -2
Mask_LB_0_4: - E_4_0_4 + Mask_0_4 - d_0 - d_4 >= -2
Mask_LB_0_5: - E_4_0_5 + Mask_0_5 - d_0 - d_5 >= -2
Mask_LB_1_2: - E_4_1_2 + Mask_1_2 - d_1 - d_2 >= -2
Mask_LB_1_3: - E_4_1_3 + Mask_1_3 - d_1 - d_3 >= -2
Mask_LB_1_4: - E_4_1_4 + Mask_1_4 - d_1 - d_4 >= -2
Mask_LB_1_5: - E_4_1_5 + Mask_1_5 - d_1 - d_5 >= -2
Mask_LB_2_3: - E_4_2_3 + Mask_2_3 - d_2 - d_3 >= -2
Mask_LB_2_4: - E_4_2_4 + Mask_2_4 - d_2 - d_4 >= -2
Mask_LB_2_5: - E_4_2_5 + Mask_2_5 - d_2 - d_5 >= -2
Mask_LB_3_4: - E_4_3_4 + Mask_3_4 - d_3 - d_4 >= -2
Mask_LB_3_5: - E_4_3_5 + Mask_3_5 - d_3 - d_5 >= -2
Mask_LB_4_5: - E_4_4_5 + Mask_4_5 - d_4 - d_5 >= -2
Mask_UB_E_0_1: - E_4_0_1 + Mask_0_1 <= 0
Mask_UB_E_0_2: - E_4_0_2 + Mask_0_2 <= 0
Mask_UB_E_0_3: - E_4_0_3 + Mask_0_3 <= 0
Mask_UB_E_0_4: - E_4_0_4 + Mask_0_4 <= 0
Mask_UB_E_0_5: - E_4_0_5 + Mask_0_5 <= 0
Mask_UB_E_1_2: - E_4_1_2 + Mask_1_2 <= 0
Mask_UB_E_1_3: - E_4_1_3 + Mask_1_3 <= 0
Mask_UB_E_1_4: - E_4_1_4 + Mask_1_4 <= 0
Mask_UB_E_1_5: - E_4_1_5 + Mask_1_5 <= 0
Mask_UB_E_2_3: - E_4_2_3 + Mask_2_3 <= 0
Mask_UB_E_2_4: - E_4_2_4 + Mask_2_4 <= 0
Mask_UB_E_2_5: - E_4_2_5 + Mask_2_5 <= 0
Mask_UB_E_3_4: - E_4_3_4 + Mask_3_4 <= 0
Mask_UB_E_3_5: - E_4_3_5 + Mask_3_5 <= 0
Mask_UB_E_4_5: - E_4_4_5 + Mask_4_5 <= 0
Mask_UB_di_0_1: Mask_0_1 - d_0 <= 0
Mask_UB_di_0_2: Mask_0_2 - d_0 <= 0
Mask_UB_di_0_3: Mask_0_3 - d_0 <= 0
Mask_UB_di_0_4: Mask_0_4 - d_0 <= 0
Mask_UB_di_0_5: Mask_0_5 - d_0 <= 0
Mask_UB_di_1_2: Mask_1_2 - d_1 <= 0
Mask_UB_di_1_3: Mask_1_3 - d_1 <= 0
Mask_UB_di_1_4: Mask_1_4 - d_1 <= 0
Mask_UB_di_1_5: Mask_1_5 - d_1 <= 0
Mask_UB_di_2_3: Mask_2_3 - d_2 <= 0
Mask_UB_di_2_4: Mask_2_4 - d_2 <= 0
Mask_UB_di_2_5: Mask_2_5 - d_2 <= 0
Mask_UB_di_3_4: Mask_3_4 - d_3 <= 0
Mask_UB_di_3_5: Mask_3_5 - d_3 <= 0
Mask_UB_di_4_5: Mask_4_5 - d_4 <= 0
Mask_UB_dj_0_1: Mask_0_1 - d_1 <= 0
Mask_UB_dj_0_2: Mask_0_2 - d_2 <= 0
Mask_UB_dj_0_3: Mask_0_3 - d_3 <= 0
Mask_UB_dj_0_4: Mask_0_4 - d_4 <= 0
Mask_UB_dj_0_5: Mask_0_5 - d_5 <= 0
Mask_UB_dj_1_2: Mask_1_2 - d_2 <= 0
Mask_UB_dj_1_3: Mask_1_3 - d_3 <= 0
Mask_UB_dj_1_4: Mask_1_4 - d_4 <= 0
Mask_UB_dj_1_5: Mask_1_5 - d_5 <= 0
Mask_UB_dj_2_3: Mask_2_3 - d_3 <= 0
Mask_UB_dj_2_4: Mask_2_4 - d_4 <= 0
Mask_UB_dj_2_5: Mask_2_5 - d_5 <= 0
Mask_UB_dj_3_4: Mask_3_4 - d_4 <= 0
Mask_UB_dj_3_5: Mask_3_5 - d_5 <= 0
Mask_UB_dj_4_5: Mask_4_5 - d_5 <= 0
One_Op_0: y_CZ_0_0_0 + y_CZ_0_0_1 + y_CZ_0_0_2 + y_CZ_0_0_3 + y_CZ_0_0_4
 + y_CZ_0_0_5 + y_CZ_0_1_0 + y_CZ_0_1_1 + y_CZ_0_1_2 + y_CZ_0_1_3 + y_CZ_0_1_4
 + y_CZ_0_1_5 + y_CZ_0_2_0 + y_CZ_0_2_1 + y_CZ_0_2_2 + y_CZ_0_2_3 + y_CZ_0_2_4
 + y_CZ_0_2_5 + y_CZ_0_3_0 + y_CZ_0_3_1 + y_CZ_0_3_2 + y_CZ_0_3_3 + y_CZ_0_3_4
 + y_CZ_0_3_5 + y_CZ_0_4_0 + y_CZ_0_4_1 + y_CZ_0_4_2 + y_CZ_0_4_3 + y_CZ_0_4_4
 + y_CZ_0_4_5 + y_CZ_0_5_0 + y_CZ_0_5_1 + y_CZ_0_5_2 + y_CZ_0_5_3 + y_CZ_0_5_4
 + y_CZ_0_5_5 + y_F_0_0_0 + y_F_0_0_1 + y_F_0_0_2 + y_F_0_0_3 + y_F_0_0_4
 + y_F_0_0_5 + y_F_0_1_0 + y_F_0_1_1 + y_F_0_1_2 + y_F_0_1_3 + y_F_0_1_4
 + y_F_0_1_5 + y_F_0_2_0 + y_F_0_2_1 + y_F_0_2_2 + y_F_0_2_3 + y_F_0_2_4
 + y_F_0_2_5 + y_F_0_3_0 + y_F_0_3_1 + y_F_0_3_2 + y_F_0_3_3 + y_F_0_3_4
 + y_F_0_3_5 + y_F_0_4_0 + y_F_0_4_1 + y_F_0_4_2 + y_F_0_4_3 + y_F_0_4_4
 + y_F_0_4_5 + y_F_0_5_0 + y_F_0_5_1 + y_F_0_5_2 + y_F_0_5_3 + y_F_0_5_4
 + y_F_0_5_5 + y_LC_0_0 + y_LC_0_1 + y_LC_0_2 + y_LC_0_3 + y_LC_0_4 + y_LC_0_5
 + y_dummy_0 = 1
One_Op_1: y_CZ_1_0_0 + y_CZ_1_0_1 + y_CZ_1_0_2 + y_CZ_1_0_3 + y_CZ_1_0_4
 + y_CZ_1_0_5 + y_CZ_1_1_0 + y_CZ_1_1_1 + y_CZ_1_1_2 + y_CZ_1_1_3 + y_CZ_1_1_4
 + y_CZ_1_1_5 + y_CZ_1_2_0 + y_CZ_1_2_1 + y_CZ_1_2_2 + y_CZ_1_2_3 + y_CZ_1_2_4
 + y_CZ_1_2_5 + y_CZ_1_3_0 + y_CZ_1_3_1 + y_CZ_1_3_2 + y_CZ_1_3_3 + y_CZ_1_3_4
 + y_CZ_1_3_5 + y_CZ_1_4_0 + y_CZ_1_4_1 + y_CZ_1_4_2 + y_CZ_1_4_3 + y_CZ_1_4_4
 + y_CZ_1_4_5 + y_CZ_1_5_0 + y_CZ_1_5_1 + y_CZ_1_5_2 + y_CZ_1_5_3 + y_CZ_1_5_4
 + y_CZ_1_5_5 + y_F_1_0_0 + y_F_1_0_1 + y_F_1_0_2 + y_F_1_0_3 + y_F_1_0_4
 + y_F_1_0_5 + y_F_1_1_0 + y_F_1_1_1 + y_F_1_1_2 + y_F_1_1_3 + y_F_1_1_4
 + y_F_1_1_5 + y_F_1_2_0 + y_F_1_2_1 + y_F_1_2_2 + y_F_1_2_3 + y_F_1_2_4
 + y_F_1_2_5 + y_F_1_3_0 + y_F_1_3_1 + y_F_1_3_2 + y_F_1_3_3 + y_F_1_3_4
 + y_F_1_3_5 + y_F_1_4_0 + y_F_1_4_1 + y_F_1_4_2 + y_F_1_4_3 + y_F_1_4_4
 + y_F_1_4_5 + y_F_1_5_0 + y_F_1_5_1 + y_F_1_5_2 + y_F_1_5_3 + y_F_1_5_4
 + y_F_1_5_5 + y_LC_1_0 + y_LC_1_1 + y_LC_1_2 + y_LC_1_3 + y_LC_1_4 + y_LC_1_5
 + y_dummy_1 = 1
One_Op_2: y_CZ_2_0_0 + y_CZ_2_0_1 + y_CZ_2_0_2 + y_CZ_2_0_3 + y_CZ_2_0_4
 + y_CZ_2_0_5 + y_CZ_2_1_0 + y_CZ_2_1_1 + y_CZ_2_1_2 + y_CZ_2_1_3 + y_CZ_2_1_4
 + y_CZ_2_1_5 + y_CZ_2_2_0 + y_CZ_2_2_1 + y_CZ_2_2_2 + y_CZ_2_2_3 + y_CZ_2_2_4
 + y_CZ_2_2_5 + y_CZ_2_3_0 + y_CZ_2_3_1 + y_CZ_2_3_2 + y_CZ_2_3_3 + y_CZ_2_3_4
 + y_CZ_2_3_5 + y_CZ_2_4_0 + y_CZ_2_4_1 + y_CZ_2_4_2 + y_CZ_2_4_3 + y_CZ_2_4_4
 + y_CZ_2_4_5 + y_CZ_2_5_0 + y_CZ_2_5_1 + y_CZ_2_5_2 + y_CZ_2_5_3 + y_CZ_2_5_4
 + y_CZ_2_5_5 + y_F_2_0_0 + y_F_2_0_1 + y_F_2_0_2 + y_F_2_0_3 + y_F_2_0_4
 + y_F_2_0_5 + y_F_2_1_0 + y_F_2_1_1 + y_F_2_1_2 + y_F_2_1_3 + y_F_2_1_4
 + y_F_2_1_5 + y_F_2_2_0 + y_F_2_2_1 + y_F_2_2_2 + y_F_2_2_3 + y_F_2_2_4
 + y_F_2_2_5 + y_F_2_3_0 + y_F_2_3_1 + y_F_2_3_2 + y_F_2_3_3 + y_F_2_3_4
 + y_F_2_3_5 + y_F_2_4_0 + y_F_2_4_1 + y_F_2_4_2 + y_F_2_4_3 + y_F_2_4_4
 + y_F_2_4_5 + y_F_2_5_0 + y_F_2_5_1 + y_F_2_5_2 + y_F_2_5_3 + y_F_2_5_4
 + y_F_2_5_5 + y_LC_2_0 + y_LC_2_1 + y_LC_2_2 + y_LC_2_3 + y_LC_2_4 + y_LC_2_5
 + y_dummy_2 = 1
One_Op_3: y_CZ_3_0_0 + y_CZ_3_0_1 + y_CZ_3_0_2 + y_CZ_3_0_3 + y_CZ_3_0_4
 + y_CZ_3_0_5 + y_CZ_3_1_0 + y_CZ_3_1_1 + y_CZ_3_1_2 + y_CZ_3_1_3 + y_CZ_3_1_4
 + y_CZ_3_1_5 + y_CZ_3_2_0 + y_CZ_3_2_1 + y_CZ_3_2_2 + y_CZ_3_2_3 + y_CZ_3_2_4
 + y_CZ_3_2_5 + y_CZ_3_3_0 + y_CZ_3_3_1 + y_CZ_3_3_2 + y_CZ_3_3_3 + y_CZ_3_3_4
 + y_CZ_3_3_5 + y_CZ_3_4_0 + y_CZ_3_4_1 + y_CZ_3_4_2 + y_CZ_3_4_3 + y_CZ_3_4_4
 + y_CZ_3_4_5 + y_CZ_3_5_0 + y_CZ_3_5_1 + y_CZ_3_5_2 + y_CZ_3_5_3 + y_CZ_3_5_4
 + y_CZ_3_5_5 + y_F_3_0_0 + y_F_3_0_1 + y_F_3_0_2 + y_F_3_0_3 + y_F_3_0_4
 + y_F_3_0_5 + y_F_3_1_0 + y_F_3_1_1 + y_F_3_1_2 + y_F_3_1_3 + y_F_3_1_4
 + y_F_3_1_5 + y_F_3_2_0 + y_F_3_2_1 + y_F_3_2_2 + y_F_3_2_3 + y_F_3_2_4
 + y_F_3_2_5 + y_F_3_3_0 + y_F_3_3_1 + y_F_3_3_2 + y_F_3_3_3 + y_F_3_3_4
 + y_F_3_3_5 + y_F_3_4_0 + y_F_3_4_1 + y_F_3_4_2 + y_F_3_4_3 + y_F_3_4_4
 + y_F_3_4_5 + y_F_3_5_0 + y_F_3_5_1 + y_F_3_5_2 + y_F_3_5_3 + y_F_3_5_4
 + y_F_3_5_5 + y_LC_3_0 + y_LC_3_1 + y_LC_3_2 + y_LC_3_3 + y_LC_3_4 + y_LC_3_5
 + y_dummy_3 = 1
Parity_CZ_0_0_1: y_CZ_0_0_1 = 0
Parity_CZ_0_0_3: y_CZ_0_0_3 = 0
Parity_CZ_0_0_5: y_CZ_0_0_5 = 0
Parity_CZ_0_1_0: y_CZ_0_1_0 = 0
Parity_CZ_0_1_2: y_CZ_0_1_2 = 0
Parity_CZ_0_1_4: y_CZ_0_1_4 = 0
Parity_CZ_0_2_1: y_CZ_0_2_1 = 0
Parity_CZ_0_2_3: y_CZ_0_2_3 = 0
Parity_CZ_0_2_5: y_CZ_0_2_5 = 0
Parity_CZ_0_3_0: y_CZ_0_3_0 = 0
Parity_CZ_0_3_2: y_CZ_0_3_2 = 0
Parity_CZ_0_3_4: y_CZ_0_3_4 = 0
Parity_CZ_0_4_1: y_CZ_0_4_1 = 0
Parity_CZ_0_4_3: y_CZ_0_4_3 = 0
Parity_CZ_0_4_5: y_CZ_0_4_5 = 0
Parity_CZ_0_5_0: y_CZ_0_5_0 = 0
Parity_CZ_0_5_2: y_CZ_0_5_2 = 0
Parity_CZ_0_5_4: y_CZ_0_5_4 = 0
Parity_CZ_1_0_1: y_CZ_1_0_1 = 0
Parity_CZ_1_0_3: y_CZ_1_0_3 = 0
Parity_CZ_1_0_5: y_CZ_1_0_5 = 0
Parity_CZ_1_1_0: y_CZ_1_1_0 = 0
Parity_CZ_1_1_2: y_CZ_1_1_2 = 0
Parity_CZ_1_1_4: y_CZ_1_1_4 = 0
Parity_CZ_1_2_1: y_CZ_1_2_1 = 0
Parity_CZ_1_2_3: y_CZ_1_2_3 = 0
Parity_CZ_1_2_5: y_CZ_1_2_5 = 0
Parity_CZ_1_3_0: y_CZ_1_3_0 = 0
Parity_CZ_1_3_2: y_CZ_1_3_2 = 0
Parity_CZ_1_3_4: y_CZ_1_3_4 = 0
Parity_CZ_1_4_1: y_CZ_1_4_1 = 0
Parity_CZ_1_4_3: y_CZ_1_4_3 = 0
Parity_CZ_1_4_5: y_CZ_1_4_5 = 0
Parity_CZ_1_5_0: y_CZ_1_5_0 = 0
Parity_CZ_1_5_2: y_CZ_1_5_2 = 0
Parity_CZ_1_5_4: y_CZ_1_5_4 = 0
Parity_CZ_2_0_1: y_CZ_2_0_1 = 0
Parity_CZ_2_0_3: y_CZ_2_0_3 = 0
Parity_CZ_2_0_5: y_CZ_2_0_5 = 0
Parity_CZ_2_1_0: y_CZ_2_1_0 = 0
Parity_CZ_2_1_2: y_CZ_2_1_2 = 0
Parity_CZ_2_1_4: y_CZ_2_1_4 = 0
Parity_CZ_2_2_1: y_CZ_2_2_1 = 0
Parity_CZ_2_2_3: y_CZ_2_2_3 = 0
Parity_CZ_2_2_5: y_CZ_2_2_5 = 0
Parity_CZ_2_3_0: y_CZ_2_3_0 = 0
Parity_CZ_2_3_2: y_CZ_2_3_2 = 0
Parity_CZ_2_3_4: y_CZ_2_3_4 = 0
Parity_CZ_2_4_1: y_CZ_2_4_1 = 0
Parity_CZ_2_4_3: y_CZ_2_4_3 = 0
Parity_CZ_2_4_5: y_CZ_2_4_5 = 0
Parity_CZ_2_5_0: y_CZ_2_5_0 = 0
Parity_CZ_2_5_2: y_CZ_2_5_2 = 0
Parity_CZ_2_5_4: y_CZ_2_5_4 = 0
Parity_CZ_3_0_1: y_CZ_3_0_1 = 0
Parity_CZ_3_0_3: y_CZ_3_0_3 = 0
Parity_CZ_3_0_5: y_CZ_3_0_5 = 0
Parity_CZ_3_1_0: y_CZ_3_1_0 = 0
Parity_CZ_3_1_2: y_CZ_3_1_2 = 0
Parity_CZ_3_1_4: y_CZ_3_1_4 = 0
Parity_CZ_3_2_1: y_CZ_3_2_1 = 0
Parity_CZ_3_2_3: y_CZ_3_2_3 = 0
Parity_CZ_3_2_5: y_CZ_3_2_5 = 0
Parity_CZ_3_3_0: y_CZ_3_3_0 = 0
Parity_CZ_3_3_2: y_CZ_3_3_2 = 0
Parity_CZ_3_3_4: y_CZ_3_3_4 = 0
Parity_CZ_3_4_1: y_CZ_3_4_1 = 0
Parity_CZ_3_4_3: y_CZ_3_4_3 = 0
Parity_CZ_3_4_5: y_CZ_3_4_5 = 0
Parity_CZ_3_5_0: y_CZ_3_5_0 = 0
Parity_CZ_3_5_2: y_CZ_3_5_2 = 0
Parity_CZ_3_5_4: y_CZ_3_5_4 = 0
Parity_F_0_0_1: y_F_0_0_1 = 0
Parity_F_0_0_3: y_F_0_0_3 = 0
Parity_F_0_0_5: y_F_0_0_5 = 0
Parity_F_0_1_0: y_F_0_1_0 = 0
Parity_F_0_1_2: y_F_0_1_2 = 0
Parity_F_0_1_4: y_F_0_1_4 = 0
Parity_F_0_2_1: y_F_0_2_1 = 0
Parity_F_0_2_3: y_F_0_2_3 = 0
Parity_F_0_2_5: y_F_0_2_5 = 0
Parity_F_0_3_0: y_F_0_3_0 = 0
Parity_F_0_3_2: y_F_0_3_2 = 0
Parity_F_0_3_4: y_F_0_3_4 = 0
Parity_F_0_4_1: y_F_0_4_1 = 0
Parity_F_0_4_3: y_F_0_4_3 = 0
Parity_F_0_4_5: y_F_0_4_5 = 0
Parity_F_0_5_0: y_F_0_5_0 = 0
Parity_F_0_5_2: y_F_0_5_2 = 0
Parity_F_0_5_4: y_F_0_5_4 = 0
Parity_F_1_0_1: y_F_1_0_1 = 0
Parity_F_1_0_3: y_F_1_0_3 = 0
Parity_F_1_0_5: y_F_1_0_5 = 0
Parity_F_1_1_0: y_F_1_1_0 = 0
Parity_F_1_1_2: y_F_1_1_2 = 0
Parity_F_1_1_4: y_F_1_1_4 = 0
Parity_F_1_2_1: y_F_1_2_1 = 0
Parity_F_1_2_3: y_F_1_2_3 = 0
Parity_F_1_2_5: y_F_1_2_5 = 0
Parity_F_1_3_0: y_F_1_3_0 = 0
Parity_F_1_3_2: y_F_1_3_2 = 0
Parity_F_1_3_4: y_F_1_3_4 = 0
Parity_F_1_4_1: y_F_1_4_1 = 0
Parity_F_1_4_3: y_F_1_4_3 = 0
Parity_F_1_4_5: y_F_1_4_5 = 0
Parity_F_1_5_0: y_F_1_5_0 = 0
Parity_F_1_5_2: y_F_1_5_2 = 0
Parity_F_1_5_4: y_F_1_5_4 = 0
Parity_F_2_0_1: y_F_2_0_1 = 0
Parity_F_2_0_3: y_F_2_0_3 = 0
Parity_F_2_0_5: y_F_2_0_5 = 0
Parity_F_2_1_0: y_F_2_1_0 = 0
Parity_F_2_1_2: y_F_2_1_2 = 0
Parity_F_2_1_4: y_F_2_1_4 = 0
Parity_F_2_2_1: y_F_2_2_1 = 0
Parity_F_2_2_3: y_F_2_2_3 = 0
Parity_F_2_2_5: y_F_2_2_5 = 0
Parity_F_2_3_0: y_F_2_3_0 = 0
Parity_F_2_3_2: y_F_2_3_2 = 0
Parity_F_2_3_4: y_F_2_3_4 = 0
Parity_F_2_4_1: y_F_2_4_1 = 0
Parity_F_2_4_3: y_F_2_4_3 = 0
Parity_F_2_4_5: y_F_2_4_5 = 0
Parity_F_2_5_0: y_F_2_5_0 = 0
Parity_F_2_5_2: y_F_2_5_2 = 0
Parity_F_2_5_4: y_F_2_5_4 = 0
Parity_F_3_0_1: y_F_3_0_1 = 0
Parity_F_3_0_3: y_F_3_0_3 = 0
Parity_F_3_0_5: y_F_3_0_5 = 0
Parity_F_3_1_0: y_F_3_1_0 = 0
Parity_F_3_1_2: y_F_3_1_2 = 0
Parity_F_3_1_4: y_F_3_1_4 = 0
Parity_F_3_2_1: y_F_3_2_1 = 0
Parity_F_3_2_3: y_F_3_2_3 = 0
Parity_F_3_2_5: y_F_3_2_5 = 0
Parity_F_3_3_0: y_F_3_3_0 = 0
Parity_F_3_3_2: y_F_3_3_2 = 0
Parity_F_3_3_4: y_F_3_3_4 = 0
Parity_F_3_4_1: y_F_3_4_1 = 0
Parity_F_3_4_3: y_F_3_4_3 = 0
Parity_F_3_4_5: y_F_3_4_5 = 0
Parity_F_3_5_0: y_F_3_5_0 = 0
Parity_F_3_5_2: y_F_3_5_2 = 0
Parity_F_3_5_4: y_F_3_5_4 = 0
Perm_Col_Sum_0: p_0_0 + p_1_0 + p_2_0 + p_3_0 + p_4_0 + p_5_0 = 1
Perm_Col_Sum_1: p_0_1 + p_1_1 + p_2_1 + p_3_1 + p_4_1 + p_5_1 = 1
Perm_Col_Sum_2: p_0_2 + p_1_2 + p_2_2 + p_3_2 + p_4_2 + p_5_2 = 1
Perm_Col_Sum_3: p_0_3 + p_1_3 + p_2_3 + p_3_3 + p_4_3 + p_5_3 = 1
Perm_Col_Sum_4: p_0_4 + p_1_4 + p_2_4 + p_3_4 + p_4_4 + p_5_4 = 1
Perm_Row_Sum_0: - d_0 + p_0_0 + p_0_1 + p_0_2 + p_0_3 + p_0_4 = 0
Perm_Row_Sum_1: - d_1 + p_1_0 + p_1_1 + p_1_2 + p_1_3 + p_1_4 = 0
Perm_Row_Sum_2: - d_2 + p_2_0 + p_2_1 + p_2_2 + p_2_3 + p_2_4 = 0
Perm_Row_Sum_3: - d_3 + p_3_0 + p_3_1 + p_3_2 + p_3_3 + p_3_4 = 0
Perm_Row_Sum_4: - d_4 + p_4_0 + p_4_1 + p_4_2 + p_4_3 + p_4_4 = 0
Perm_Row_Sum_5: - d_5 + p_5_0 + p_5_1 + p_5_2 + p_5_3 + p_5_4 = 0
Z_Bound_Base_0_1_0: - Mask_0_1 + Z_0_1_0 - p_1_0 >= -1
Z_Bound_Base_0_1_1: - Mask_0_1 + Z_0_1_1 - p_1_1 >= -1
Z_Bound_Base_0_1_2: - Mask_0_1 + Z_0_1_2 - p_1_2 >= -1
Z_Bound_Base_0_1_3: - Mask_0_1 + Z_0_1_3 - p_1_3 >= -1
Z_Bound_Base_0_1_4: - Mask_0_1 + Z_0_1_4 - p_1_4 >= -1
Z_Bound_Base_0_2_0: - Mask_0_2 + Z_0_2_0 - p_2_0 >= -1
Z_Bound_Base_0_2_1: - Mask_0_2 + Z_0_2_1 - p_2_1 >= -1
Z_Bound_Base_0_2_2: - Mask_0_2 + Z_0_2_2 - p_2_2 >= -1
Z_Bound_Base_0_2_3: - Mask_0_2 + Z_0_2_3 - p_2_3 >= -1
Z_Bound_Base_0_2_4: - Mask_0_2 + Z_0_2_4 - p_2_4 >= -1
Z_Bound_Base_0_3_0: - Mask_0_3 + Z_0_3_0 - p_3_0 >= -1
Z_Bound_Base_0_3_1: - Mask_0_3 + Z_0_3_1 - p_3_1 >= -1
Z_Bound_Base_0_3_2: - Mask_0_3 + Z_0_3_2 - p_3_2 >= -1
Z_Bound_Base_0_3_3: - Mask_0_3 + Z_0_3_3 - p_3_3 >= -1
Z_Bound_Base_0_3_4: - Mask_0_3 + Z_0_3_4 - p_3_4 >= -1
Z_Bound_Base_0_4_0: - Mask_0_4 + Z_0_4_0 - p_4_0 >= -1
Z_Bound_Base_0_4_1: - Mask_0_4 + Z_0_4_1 - p_4_1 >= -1
Z_Bound_Base_0_4_2: - Mask_0_4 + Z_0_4_2 - p_4_2 >= -1
Z_Bound_Base_0_4_3: - Mask_0_4 + Z_0_4_3 - p_4_3 >= -1
Z_Bound_Base_0_4_4: - Mask_0_4 + Z_0_4_4 - p_4_4 >= -1
Z_Bound_Base_0_5_0: - Mask_0_5 + Z_0_5_0 - p_5_0 >= -1
Z_Bound_Base_0_5_1: - Mask_0_5 + Z_0_5_1 - p_5_1 >= -1
Z_Bound_Base_0_5_2: - Mask_0_5 + Z_0_5_2 - p_5_2 >= -1
Z_Bound_Base_0_5_3: - Mask_0_5 + Z_0_5_3 - p_5_3 >= -1
Z_Bound_Base_0_5_4: - Mask_0_5 + Z_0_5_4 - p_5_4 >= -1
Z_Bound_Base_1_0_0: - Mask_0_1 + Z_1_0_0 - p_0_0 >= -1
Z_Bound_Base_1_0_1: - Mask_0_1 + Z_1_0_1 - p_0_1 >= -1
Z_Bound_Base_1_0_2: - Mask_0_1 + Z_1_0_2 - p_0_2 >= -1
Z_Bound_Base_1_0_3: - Mask_0_1 + Z_1_0_3 - p_0_3 >= -1
Z_Bound_Base_1_0_4: - Mask_0_1 + Z_1_0_4 - p_0_4 >= -1
Z_Bound_Base_1_2_0: - Mask_1_2 + Z_1_2_0 - p_2_0 >= -1
Z_Bound_Base_1_2_1: - Mask_1_2 + Z_1_2_1 - p_2_1 >= -1
Z_Bound_Base_1_2_2: - Mask_1_2 + Z_1_2_2 - p_2_2 >= -1
Z_Bound_Base_1_2_3: - Mask_1_2 + Z_1_2_3 - p_2_3 >= -1
Z_Bound_Base_1_2_4: - Mask_1_2 + Z_1_2_4 - p_2_4 >= -1
Z_Bound_Base_1_3_0: - Mask_1_3 + Z_1_3_0 - p_3_0 >= -1
Z_Bound_Base_1_3_1: - Mask_1_3 + Z_1_3_1 - p_3_1 >= -1
Z_Bound_Base_1_3_2: - Mask_1_3 + Z_1_3_2 - p_3_2 >= -1
Z_Bound_Base_1_3_3: - Mask_1_3 + Z_1_3_3 - p_3_3 >= -1
Z_Bound_Base_1_3_4: - Mask_1_3 + Z_1_3_4 - p_3_4 >= -1
Z_Bound_Base_1_4_0: - Mask_1_4 + Z_1_4_0 - p_4_0 >= -1
Z_Bound_Base_1_4_1: - Mask_1_4 + Z_1_4_1 - p_4_1 >= -1
Z_Bound_Base_1_4_2: - Mask_1_4 + Z_1_4_2 - p_4_2 >= -1
Z_Bound_Base_1_4_3: - Mask_1_4 + Z_1_4_3 - p_4_3 >= -1
Z_Bound_Base_1_4_4: - Mask_1_4 + Z_1_4_4 - p_4_4 >= -1
Z_Bound_Base_1_5_0: - Mask_1_5 + Z_1_5_0 - p_5_0 >= -1
Z_Bound_Base_1_5_1: - Mask_1_5 + Z_1_5_1 - p_5_1 >= -1
Z_Bound_Base_1_5_2: - Mask_1_5 + Z_1_5_2 - p_5_2 >= -1
Z_Bound_Base_1_5_3: - Mask_1_5 + Z_1_5_3 - p_5_3 >= -1
Z_Bound_Base_1_5_4: - Mask_1_5 + Z_1_5_4 - p_5_4 >= -1
Z_Bound_Base_2_0_0: - Mask_0_2 + Z_2_0_0 - p_0_0 >= -1
Z_Bound_Base_2_0_1: - Mask_0_2 + Z_2_0_1 - p_0_1 >= -1
Z_Bound_Base_2_0_2: - Mask_0_2 + Z_2_0_2 - p_0_2 >= -1
Z_Bound_Base_2_0_3: - Mask_0_2 + Z_2_0_3 - p_0_3 >= -1
Z_Bound_Base_2_0_4: - Mask_0_2 + Z_2_0_4 - p_0_4 >= -1
Z_Bound_Base_2_1_0: - Mask_1_2 + Z_2_1_0 - p_1_0 >= -1
Z_Bound_Base_2_1_1: - Mask_1_2 + Z_2_1_1 - p_1_1 >= -1
Z_Bound_Base_2_1_2: - Mask_1_2 + Z_2_1_2 - p_1_2 >= -1
Z_Bound_Base_2_1_3: - Mask_1_2 + Z_2_1_3 - p_1_3 >= -1
Z_Bound_Base_2_1_4: - Mask_1_2 + Z_2_1_4 - p_1_4 >= -1
Z_Bound_Base_2_3_0: - Mask_2_3 + Z_2_3_0 - p_3_0 >= -1
Z_Bound_Base_2_3_1: - Mask_2_3 + Z_2_3_1 - p_3_1 >= -1
Z_Bound_Base_2_3_2: - Mask_2_3 + Z_2_3_2 - p_3_2 >= -1
Z_Bound_Base_2_3_3: - Mask_2_3 + Z_2_3_3 - p_3_3 >= -1
Z_Bound_Base_2_3_4: - Mask_2_3 + Z_2_3_4 - p_3_4 >= -1
Z_Bound_Base_2_4_0: - Mask_2_4 + Z_2_4_0 - p_4_0 >= -1
Z_Bound_Base_2_4_1: - Mask_2_4 + Z_2_4_1 - p_4_1 >= -1
Z_Bound_Base_2_4_2: - Mask_2_4 + Z_2_4_2 - p_4_2 >= -1
Z_Bound_Base_2_4_3: - Mask_2_4 + Z_2_4_3 - p_4_3 >= -1
Z_Bound_Base_2_4_4: - Mask_2_4 + Z_2_4_4 - p_4_4 >= -1
Z_Bound_Base_2_5_0: - Mask_2_5 + Z_2_5_0 - p_5_0 >= -1
Z_Bound_Base_2_5_1: - Mask_2_5 + Z_2_5_1 - p_5_1 >= -1
Z_Bound_Base_2_5_2: - Mask_2_5 + Z_2_5_2 - p_5_2 >= -1
Z_Bound_Base_2_5_3: - Mask_2_5 + Z_2_5_3 - p_5_3 >= -1
Z_Bound_Base_2_5_4: - Mask_2_5 + Z_2_5_4 - p_5_4 >= -1
Z_Bound_Base_3_0_0: - Mask_0_3 + Z_3_0_0 - p_0_0 >= -1
Z_Bound_Base_3_0_1: - Mask_0_3 + Z_3_0_1 - p_0_1 >= -1
Z_Bound_Base_3_0_2: - Mask_0_3 + Z_3_0_2 - p_0_2 >= -1
Z_Bound_Base_3_0_3: - Mask_0_3 + Z_3_0_3 - p_0_3 >= -1
Z_Bound_Base_3_0_4: - Mask_0_3 + Z_3_0_4 - p_0_4 >= -1
Z_Bound_Base_3_1_0: - Mask_1_3 + Z_3_1_0 - p_1_0 >= -1
Z_Bound_Base_3_1_1: - Mask_1_3 + Z_3_1_1 - p_1_1 >= -1
Z_Bound_Base_3_1_2: - Mask_1_3 + Z_3_1_2 - p_1_2 >= -1
Z_Bound_Base_3_1_3: - Mask_1_3 + Z_3_1_3 - p_1_3 >= -1
Z_Bound_Base_3_1_4: - Mask_1_3 + Z_3_1_4 - p_1_4 >= -1
Z_Bound_Base_3_2_0: - Mask_2_3 + Z_3_2_0 - p_2_0 >= -1
Z_Bound_Base_3_2_1: - Mask_2_3 + Z_3_2_1 - p_2_1 >= -1
Z_Bound_Base_3_2_2: - Mask_2_3 + Z_3_2_2 - p_2_2 >= -1
Z_Bound_Base_3_2_3: - Mask_2_3 + Z_3_2_3 - p_2_3 >= -1
Z_Bound_Base_3_2_4: - Mask_2_3 + Z_3_2_4 - p_2_4 >= -1
Z_Bound_Base_3_4_0: - Mask_3_4 + Z_3_4_0 - p_4_0 >= -1
Z_Bound_Base_3_4_1: - Mask_3_4 + Z_3_4_1 - p_4_1 >= -1
Z_Bound_Base_3_4_2: - Mask_3_4 + Z_3_4_2 - p_4_2 >= -1
Z_Bound_Base_3_4_3: - Mask_3_4 + Z_3_4_3 - p_4_3 >= -1
Z_Bound_Base_3_4_4: - Mask_3_4 + Z_3_4_4 - p_4_4 >= -1
Z_Bound_Base_3_5_0: - Mask_3_5 + Z_3_5_0 - p_5_0 >= -1
Z_Bound_Base_3_5_1: - Mask_3_5 + Z_3_5_1 - p_5_1 >= -1
Z_Bound_Base_3_5_2: - Mask_3_5 + Z_3_5_2 - p_5_2 >= -1
Z_Bound_Base_3_5_3: - Mask_3_5 + Z_3_5_3 - p_5_3 >= -1
Z_Bound_Base_3_5_4: - Mask_3_5 + Z_3_5_4 - p_5_4 >= -1
Z_Bound_Base_4_0_0: - Mask_0_4 + Z_4_0_0 - p_0_0 >= -1
Z_Bound_Base_4_0_1: - Mask_0_4 + Z_4_0_1 - p_0_1 >= -1
Z_Bound_Base_4_0_2: - Mask_0_4 + Z_4_0_2 - p_0_2 >= -1
Z_Bound_Base_4_0_3: - Mask_0_4 + Z_4_0_3 - p_0_3 >= -1
Z_Bound_Base_4_0_4: - Mask_0_4 + Z_4_0_4 - p_0_4 >= -1
Z_Bound_Base_4_1_0: - Mask_1_4 + Z_4_1_0 - p_1_0 >= -1
Z_Bound_Base_4_1_1: - Mask_1_4 + Z_4_1_1 - p_1_1 >= -1
Z_Bound_Base_4_1_2: - Mask_1_4 + Z_4_1_2 - p_1_2 >= -1
Z_Bound_Base_4_1_3: - Mask_1_4 + Z_4_1_3 - p_1_3 >= -1
Z_Bound_Base_4_1_4: - Mask_1_4 + Z_4_1_4 - p_1_4 >= -1
Z_Bound_Base_4_2_0: - Mask_2_4 + Z_4_2_0 - p_2_0 >= -1
Z_Bound_Base_4_2_1: - Mask_2_4 + Z_4_2_1 - p_2_1 >= -1
Z_Bound_Base_4_2_2: - Mask_2_4 + Z_4_2_2 - p_2_2 >= -1
Z_Bound_Base_4_2_3: - Mask_2_4 + Z_4_2_3 - p_2_3 >= -1
Z_Bound_Base_4_2_4: - Mask_2_4 + Z_4_2_4 - p_2_4 >= -1
Z_Bound_Base_4_3_0: - Mask_3_4 + Z_4_3_0 - p_3_0 >= -1
Z_Bound_Base_4_3_1: - Mask_3_4 + Z_4_3_1 - p_3_1 >= -1
Z_Bound_Base_4_3_2: - Mask_3_4 + Z_4_3_2 - p_3_2 >= -1
Z_Bound_Base_4_3_3: - Mask_3_4 + Z_4_3_3 - p_3_3 >= -1
Z_Bound_Base_4_3_4: - Mask_3_4 + Z_4_3_4 - p_3_4 >= -1
Z_Bound_Base_4_5_0: - Mask_4_5 + Z_4_5_0 - p_5_0 >= -1
Z_Bound_Base_4_5_1: - Mask_4_5 + Z_4_5_1 - p_5_1 >= -1
Z_Bound_Base_4_5_2: - Mask_4_5 + Z_4_5_2 - p_5_2 >= -1
Z_Bound_Base_4_5_3: - Mask_4_5 + Z_4_5_3 - p_5_3 >= -1
Z_Bound_Base_4_5_4: - Mask_4_5 + Z_4_5_4 - p_5_4 >= -1
Z_Bound_Base_5_0_0: - Mask_0_5 + Z_5_0_0 - p_0_0 >= -1
Z_Bound_Base_5_0_1: - Mask_0_5 + Z_5_0_1 - p_0_1 >= -1
Z_Bound_Base_5_0_2: - Mask_0_5 + Z_5_0_2 - p_0_2 >= -1
Z_Bound_Base_5_0_3: - Mask_0_5 + Z_5_0_3 - p_0_3 >= -1
Z_Bound_Base_5_0_4: - Mask_0_5 + Z_5_0_4 - p_0_4 >= -1
Z_Bound_Base_5_1_0: - Mask_1_5 + Z_5_1_0 - p_1_0 >= -1
Z_Bound_Base_5_1_1: - Mask_1_5 + Z_5_1_1 - p_1_1 >= -1
Z_Bound_Base_5_1_2: - Mask_1_5 + Z_5_1_2 - p_1_2 >= -1
Z_Bound_Base_5_1_3: - Mask_1_5 + Z_5_1_3 - p_1_3 >= -1
Z_Bound_Base_5_1_4: - Mask_1_5 + Z_5_1_4 - p_1_4 >= -1
Z_Bound_Base_5_2_0: - Mask_2_5 + Z_5_2_0 - p_2_0 >= -1
Z_Bound_Base_5_2_1: - Mask_2_5 + Z_5_2_1 - p_2_1 >= -1
Z_Bound_Base_5_2_2: - Mask_2_5 + Z_5_2_2 - p_2_2 >= -1
Z_Bound_Base_5_2_3: - Mask_2_5 + Z_5_2_3 - p_2_3 >= -1
Z_Bound_Base_5_2_4: - Mask_2_5 + Z_5_2_4 - p_2_4 >= -1
Z_Bound_Base_5_3_0: - Mask_3_5 + Z_5_3_0 - p_3_0 >= -1
Z_Bound_Base_5_3_1: - Mask_3_5 + Z_5_3_1 - p_3_1 >= -1
Z_Bound_Base_5_3_2: - Mask_3_5 + Z_5_3_2 - p_3_2 >= -1
Z_Bound_Base_5_3_3: - Mask_3_5 + Z_5_3_3 - p_3_3 >= -1
Z_Bound_Base_5_3_4: - Mask_3_5 + Z_5_3_4 - p_3_4 >= -1
Z_Bound_Base_5_4_0: - Mask_4_5 + Z_5_4_0 - p_4_0 >= -1
Z_Bound_Base_5_4_1: - Mask_4_5 + Z_5_4_1 - p_4_1 >= -1
Z_Bound_Base_5_4_2: - Mask_4_5 + Z_5_4_2 - p_4_2 >= -1
Z_Bound_Base_5_4_3: - Mask_4_5 + Z_5_4_3 - p_4_3 >= -1
Z_Bound_Base_5_4_4: - Mask_4_5 + Z_5_4_4 - p_4_4 >= -1
Z_Bound_Mask_0_1_0: - Mask_0_1 + Z_0_1_0 <= 0
Z_Bound_Mask_0_1_1: - Mask_0_1 + Z_0_1_1 <= 0
Z_Bound_Mask_0_1_2: - Mask_0_1 + Z_0_1_2 <= 0
Z_Bound_Mask_0_1_3: - Mask_0_1 + Z_0_1_3 <= 0
Z_Bound_Mask_0_1_4: - Mask_0_1 + Z_0_1_4 <= 0
Z_Bound_Mask_0_2_0: - Mask_0_2 + Z_0_2_0 <= 0
Z_Bound_Mask_0_2_1: - Mask_0_2 + Z_0_2_1 <= 0
Z_Bound_Mask_0_2_2: - Mask_0_2 + Z_0_2_2 <= 0
Z_Bound_Mask_0_2_3: - Mask_0_2 + Z_0_2_3 <= 0
Z_Bound_Mask_0_2_4: - Mask_0_2 + Z_0_2_4 <= 0
Z_Bound_Mask_0_3_0: - Mask_0_3 + Z_0_3_0 <= 0
Z_Bound_Mask_0_3_1: - Mask_0_3 + Z_0_3_1 <= 0
Z_Bound_Mask_0_3_2: - Mask_0_3 + Z_0_3_2 <= 0
Z_Bound_Mask_0_3_3: - Mask_0_3 + Z_0_3_3 <= 0
Z_Bound_Mask_0_3_4: - Mask_0_3 + Z_0_3_4 <= 0
Z_Bound_Mask_0_4_0: - Mask_0_4 + Z_0_4_0 <= 0
Z_Bound_Mask_0_4_1: - Mask_0_4 + Z_0_4_1 <= 0
Z_Bound_Mask_0_4_2: - Mask_0_4 + Z_0_4_2 <= 0
Z_Bound_Mask_0_4_3: - Mask_0_4 + Z_0_4_3 <= 0
Z_Bound_Mask_0_4_4: - Mask_0_4 + Z_0_4_4 <= 0
Z_Bound_Mask_0_5_0: - Mask_0_5 + Z_0_5_0 <= 0
Z_Bound_Mask_0_5_1: - Mask_0_5 + Z_0_5_1 <= 0
Z_Bound_Mask_0_5_2: - Mask_0_5 + Z_0_5_2 <= 0
Z_Bound_Mask_0_5_3: - Mask_0_5 + Z_0_5_3 <= 0
Z_Bound_Mask_0_5_4: - Mask_0_5 + Z_0_5_4 <= 0
Z_Bound_Mask_1_0_0: - Mask_0_1 + Z_1_0_0 <= 0
Z_Bound_Mask_1_0_1: - Mask_0_1 + Z_1_0_1 <= 0
Z_Bound_Mask_1_0_2: - Mask_0_1 + Z_1_0_2 <= 0
Z_Bound_Mask_1_0_3: - Mask_0_1 + Z_1_0_3 <= 0
Z_Bound_Mask_1_0_4: - Mask_0_1 + Z_1_0_4 <= 0
Z_Bound_Mask_1_2_0: - Mask_1_2 + Z_1_2_0 <= 0
Z_Bound_Mask_1_2_1: - Mask_1_2 + Z_1_2_1 <= 0
Z_Bound_Mask_1_2_2: - Mask_1_2 + Z_1_2_2 <= 0
Z_Bound_Mask_1_2_3: - Mask_1_2 + Z_1_2_3 <= 0
Z_Bound_Mask_1_2_4: - Mask_1_2 + Z_1_2_4 <= 0
Z_Bound_Mask_1_3_0: - Mask_1_3 + Z_1_3_0 <= 0
Z_Bound_Mask_1_3_1: - Mask_1_3 + Z_1_3_1 <= 0
Z_Bound_Mask_1_3_2: - Mask_1_3 + Z_1_3_2 <= 0
Z_Bound_Mask_1_3_3: - Mask_1_3 + Z_1_3_3 <= 0
Z_Bound_Mask_1_3_4: - Mask_1_3 + Z_1_3_4 <= 0
Z_Bound_Mask_1_4_0: - Mask_1_4 + Z_1_4_0 <= 0
Z_Bound_Mask_1_4_1: - Mask_1_4 + Z_1_4_1 <= 0
Z_Bound_Mask_1_4_2: - Mask_1_4 + Z_1_4_2 <= 0
Z_Bound_Mask_1_4_3: - Mask_1_4 + Z_1_4_3 <= 0
Z_Bound_Mask_1_4_4: - Mask_1_4 + Z_1_4_4 <= 0
Z_Bound_Mask_1_5_0: - Mask_1_5 + Z_1_5_0 <= 0
Z_Bound_Mask_1_5_1: - Mask_1_5 + Z_1_5_1 <= 0
Z_Bound_Mask_1_5_2: - Mask_1_5 + Z_1_5_2 <= 0
Z_Bound_Mask_1_5_3: - Mask_1_5 + Z_1_5_3 <= 0
Z_Bound_Mask_1_5_4: - Mask_1_5 + Z_1_5_4 <= 0
Z_Bound_Mask_2_0_0: - Mask_0_2 + Z_2_0_0 <= 0
Z_Bound_Mask_2_0_1: - Mask_0_2 + Z_2_0_1 <= 0
Z_Bound_Mask_2_0_2: - Mask_0_2 + Z_2_0_2 <= 0
Z_Bound_Mask_2_0_3: - Mask_0_2 + Z_2_0_3 <= 0
Z_Bound_Mask_2_0_4: - Mask_0_2 + Z_2_0_4 <= 0
Z_Bound_Mask_2_1_0: - Mask_1_2 + Z_2_1_0 <= 0
Z_Bound_Mask_2_1_1: - Mask_1_2 + Z_2_1_1 <= 0
Z_Bound_Mask_2_1_2: - Mask_1_2 + Z_2_1_2 <= 0
Z_Bound_Mask_2_1_3: - Mask_1_2 + Z_2_1_3 <= 0
Z_Bound_Mask_2_1_4: - Mask_1_2 + Z_2_1_4 <= 0
Z_Bound_Mask_2_3_0: - Mask_2_3 + Z_2_3_0 <= 0
Z_Bound_Mask_2_3_1: - Mask_2_3 + Z_2_3_1 <= 0
Z_Bound_Mask_2_3_2: - Mask_2_3 + Z_2_3_2 <= 0
Z_Bound_Mask_2_3_3: - Mask_2_3 + Z_2_3_3 <= 0
Z_Bound_Mask_2_3_4: - Mask_2_3 + Z_2_3_4 <= 0
Z_Bound_Mask_2_4_0: - Mask_2_4 + Z_2_4_0 <= 0
Z_Bound_Mask_2_4_1: - Mask_2_4 + Z_2_4_1 <= 0
Z_Bound_Mask_2_4_2: - Mask_2_4 + Z_2_4_2 <= 0
Z_Bound_Mask_2_4_3: - Mask_2_4 + Z_2_4_3 <= 0
Z_Bound_Mask_2_4_4: - Mask_2_4 + Z_2_4_4 <= 0
Z_Bound_Mask_2_5_0: - Mask_2_5 + Z_2_5_0 <= 0
Z_Bound_Mask_2_5_1: - Mask_2_5 + Z_2_5_1 <= 0
Z_Bound_Mask_2_5_2: - Mask_2_5 + Z_2_5_2 <= 0
Z_Bound_Mask_2_5_3: - Mask_2_5 + Z_2_5_3 <= 0
Z_Bound_Mask_2_5_4: - Mask_2_5 + Z_2_5_4 <= 0
Z_Bound_Mask_3_0_0: - Mask_0_3 + Z_3_0_0 <= 0
Z_Bound_Mask_3_0_1: - Mask_0_3 + Z_3_0_1 <= 0
Z_Bound_Mask_3_0_2: - Mask_0_3 + Z_3_0_2 <= 0
Z_Bound_Mask_3_0_3: - Mask_0_3 + Z_3_0_3 <= 0
Z_Bound_Mask_3_0_4: - Mask_0_3 + Z_3_0_4 <= 0
Z_Bound_Mask_3_1_0: - Mask_1_3 + Z_3_1_0 <= 0
Z_Bound_Mask_3_1_1: - Mask_1_3 + Z_3_1_1 <= 0
Z_Bound_Mask_3_1_2: - Mask_1_3 + Z_3_1_2 <= 0
Z_Bound_Mask_3_1_3: - Mask_1_3 + Z_3_1_3 <= 0
Z_Bound_Mask_3_1_4: - Mask_1_3 + Z_3_1_4 <= 0
Z_Bound_Mask_3_2_0: - Mask_2_3 + Z_3_2_0 <= 0
Z_Bound_Mask_3_2_1: - Mask_2_3 + Z_3_2_1 <= 0
Z_Bound_Mask_3_2_2: - Mask_2_3 + Z_3_2_2 <= 0
Z_Bound_Mask_3_2_3: - Mask_2_3 + Z_3_2_3 <= 0
Z_Bound_Mask_3_2_4: - Mask_2_3 + Z_3_2_4 <= 0
Z_Bound_Mask_3_4_0: - Mask_3_4 + Z_3_4_0 <= 0
Z_Bound_Mask_3_4_1: - Mask_3_4 + Z_3_4_1 <= 0
Z_Bound_Mask_3_4_2: - Mask_3_4 + Z_3_4_2 <= 0
Z_Bound_Mask_3_4_3: - Mask_3_4 + Z_3_4_3 <= 0
Z_Bound_Mask_3_4_4: - Mask_3_4 + Z_3_4_4 <= 0
Z_Bound_Mask_3_5_0: - Mask_3_5 + Z_3_5_0 <= 0
Z_Bound_Mask_3_5_1: - Mask_3_5 + Z_3_5_1 <= 0
Z_Bound_Mask_3_5_2: - Mask_3_5 + Z_3_5_2 <= 0
Z_Bound_Mask_3_5_3: - Mask_3_5 + Z_3_5_3 <= 0
Z_Bound_Mask_3_5_4: - Mask_3_5 + Z_3_5_4 <= 0
Z_Bound_Mask_4_0_0: - Mask_0_4 + Z_4_0_0 <= 0
Z_Bound_Mask_4_0_1: - Mask_0_4 + Z_4_0_1 <= 0
Z_Bound_Mask_4_0_2: - Mask_0_4 + Z_4_0_2 <= 0
Z_Bound_Mask_4_0_3: - Mask_0_4 + Z_4_0_3 <= 0
Z_Bound_Mask_4_0_4: - Mask_0_4 + Z_4_0_4 <= 0
Z_Bound_Mask_4_1_0: - Mask_1_4 + Z_4_1_0 <= 0
Z_Bound_Mask_4_1_1: - Mask_1_4 + Z_4_1_1 <= 0
Z_Bound_Mask_4_1_2: - Mask_1_4 + Z_4_1_2 <= 0
Z_Bound_Mask_4_1_3: - Mask_1_4 + Z_4_1_3 <= 0
Z_Bound_Mask_4_1_4: - Mask_1_4 + Z_4_1_4 <= 0
Z_Bound_Mask_4_2_0: - Mask_2_4 + Z_4_2_0 <= 0
Z_Bound_Mask_4_2_1: - Mask_2_4 + Z_4_2_1 <= 0
Z_Bound_Mask_4_2_2: - Mask_2_4 + Z_4_2_2 <= 0
Z_Bound_Mask_4_2_3: - Mask_2_4 + Z_4_2_3 <= 0
Z_Bound_Mask_4_2_4: - Mask_2_4 + Z_4_2_4 <= 0
Z_Bound_Mask_4_3_0: - Mask_3_4 + Z_4_3_0 <= 0
Z_Bound_Mask_4_3_1: - Mask_3_4 + Z_4_3_1 <= 0
Z_Bound_Mask_4_3_2: - Mask_3_4 + Z_4_3_2 <= 0
Z_Bound_Mask_4_3_3: - Mask_3_4 + Z_4_3_3 <= 0
Z_Bound_Mask_4_3_4: - Mask_3_4 + Z_4_3_4 <= 0
Z_Bound_Mask_4_5_0: - Mask_4_5 + Z_4_5_0 <= 0
Z_Bound_Mask_4_5_1: - Mask_4_5 + Z_4_5_1 <= 0
Z_Bound_Mask_4_5_2: - Mask_4_5 + Z_4_5_2 <= 0
Z_Bound_Mask_4_5_3: - Mask_4_5 + Z_4_5_3 <= 0
Z_Bound_Mask_4_5_4: - Mask_4_5 + Z_4_5_4 <= 0
Z_Bound_Mask_5_0_0: - Mask_0_5 + Z_5_0_0 <= 0
Z_Bound_Mask_5_0_1: - Mask_0_5 + Z_5_0_1 <= 0
Z_Bound_Mask_5_0_2: - Mask_0_5 + Z_5_0_2 <= 0
Z_Bound_Mask_5_0_3: - Mask_0_5 + Z_5_0_3 <= 0
Z_Bound_Mask_5_0_4: - Mask_0_5 + Z_5_0_4 <= 0
Z_Bound_Mask_5_1_0: - Mask_1_5 + Z_5_1_0 <= 0
Z_Bound_Mask_5_1_1: - Mask_1_5 + Z_5_1_1 <= 0
Z_Bound_Mask_5_1_2: - Mask_1_5 + Z_5_1_2 <= 0
Z_Bound_Mask_5_1_3: - Mask_1_5 + Z_5_1_3 <= 0
Z_Bound_Mask_5_1_4: - Mask_1_5 + Z_5_1_4 <= 0
Z_Bound_Mask_5_2_0: - Mask_2_5 + Z_5_2_0 <= 0
Z_Bound_Mask_5_2_1: - Mask_2_5 + Z_5_2_1 <= 0
Z_Bound_Mask_5_2_2: - Mask_2_5 + Z_5_2_2 <= 0
Z_Bound_Mask_5_2_3: - Mask_2_5 + Z_5_2_3 <= 0
Z_Bound_Mask_5_2_4: - Mask_2_5 + Z_5_2_4 <= 0
Z_Bound_Mask_5_3_0: - Mask_3_5 + Z_5_3_0 <= 0
Z_Bound_Mask_5_3_1: - Mask_3_5 + Z_5_3_1 <= 0
Z_Bound_Mask_5_3_2: - Mask_3_5 + Z_5_3_2 <= 0
Z_Bound_Mask_5_3_3: - Mask_3_5 + Z_5_3_3 <= 0
Z_Bound_Mask_5_3_4: - Mask_3_5 + Z_5_3_4 <= 0
Z_Bound_Mask_5_4_0: - Mask_4_5 + Z_5_4_0 <= 0
Z_Bound_Mask_5_4_1: - Mask_4_5 + Z_5_4_1 <= 0
Z_Bound_Mask_5_4_2: - Mask_4_5 + Z_5_4_2 <= 0
Z_Bound_Mask_5_4_3: - Mask_4_5 + Z_5_4_3 <= 0
Z_Bound_Mask_5_4_4: - Mask_4_5 + Z_5_4_4 <= 0
Z_Bound_p_0_1_0: Z_0_1_0 - p_1_0 <= 0
Z_Bound_p_0_1_1: Z_0_1_1 - p_1_1 <= 0
Z_Bound_p_0_1_2: Z_0_1_2 - p_1_2 <= 0
Z_Bound_p_0_1_3: Z_0_1_3 - p_1_3 <= 0
Z_Bound_p_0_1_4: Z_0_1_4 - p_1_4 <= 0
Z_Bound_p_0_2_0: Z_0_2_0 - p_2_0 <= 0
Z_Bound_p_0_2_1: Z_0_2_1 - p_2_1 <= 0
Z_Bound_p_0_2_2: Z_0_2_2 - p_2_2 <= 0
Z_Bound_p_0_2_3: Z_0_2_3 - p_2_3 <= 0
Z_Bound_p_0_2_4: Z_0_2_4 - p_2_4 <= 0
Z_Bound_p_0_3_0: Z_0_3_0 - p_3_0 <= 0
Z_Bound_p_0_3_1: Z_0_3_1 - p_3_1 <= 0
Z_Bound_p_0_3_2: Z_0_3_2 - p_3_2 <= 0
Z_Bound_p_0_3_3: Z_0_3_3 - p_3_3 <= 0
Z_Bound_p_0_3_4: Z_0_3_4 - p_3_4 <= 0
Z_Bound_p_0_4_0: Z_0_4_0 - p_4_0 <= 0
Z_Bound_p_0_4_1: Z_0_4_1 - p_4_1 <= 0
Z_Bound_p_0_4_2: Z_0_4_2 - p_4_2 <= 0
Z_Bound_p_0_4_3: Z_0_4_3 - p_4_3 <= 0
Z_Bound_p_0_4_4: Z_0_4_4 - p_4_4 <= 0
Z_Bound_p_0_5_0: Z_0_5_0 - p_5_0 <= 0
Z_Bound_p_0_5_1: Z_0_5_1 - p_5_1 <= 0
Z_Bound_p_0_5_2: Z_0_5_2 - p_5_2 <= 0
Z_Bound_p_0_5_3: Z_0_5_3 - p_5_3 <= 0
Z_Bound_p_0_5_4: Z_0_5_4 - p_5_4 <= 0
Z_Bound_p_1_0_0: Z_1_0_0 - p_0_0 <= 0
Z_Bound_p_1_0_1: Z_1_0_1 - p_0_1 <= 0
Z_Bound_p_1_0_2: Z_1_0_2 - p_0_2 <= 0
Z_Bound_p_1_0_3: Z_1_0_3 - p_0_3 <= 0
Z_Bound_p_1_0_4: Z_1_0_4 - p_0_4 <= 0
Z_Bound_p_1_2_0: Z_1_2_0 - p_2_0 <= 0
Z_Bound_p_1_2_1: Z_1_2_1 - p_2_1 <= 0
Z_Bound_p_1_2_2: Z_1_2_2 - p_2_2 <= 0
Z_Bound_p_1_2_3: Z_1_2_3 - p_2_3 <= 0
Z_Bound_p_1_2_4: Z_1_2_4 - p_2_4 <= 0
Z_Bound_p_1_3_0: Z_1_3_0 - p_3_0 <= 0
Z_Bound_p_1_3_1: Z_1_3_1 - p_3_1 <= 0
Z_Bound_p_1_3_2: Z_1_3_2 - p_3_2 <= 0
Z_Bound_p_1_3_3: Z_1_3_3 - p_3_3 <= 0
Z_Bound_p_1_3_4: Z_1_3_4 - p_3_4 <= 0
Z_Bound_p_1_4_0: Z_1_4_0 - p_4_0 <= 0
Z_Bound_p_1_4_1: Z_1_4_1 - p_4_1 <= 0
Z_Bound_p_1_4_2: Z_1_4_2 - p_4_2 <= 0
Z_Bound_p_1_4_3: Z_1_4_3 - p_4_3 <= 0
Z_Bound_p_1_4_4: Z_1_4_4 - p_4_4 <= 0
Z_Bound_p_1_5_0: Z_1_5_0 - p_5_0 <= 0
Z_Bound_p_1_5_1: Z_1_5_1 - p_5_1 <= 0
Z_Bound_p_1_5_2: Z_1_5_2 - p_5_2 <= 0
Z_Bound_p_1_5_3: Z_1_5_3 - p_5_3 <= 0
Z_Bound_p_1_5_4: Z_1_5_4 - p_5_4 <= 0
Z_Bound_p_2_0_0: Z_2_0_0 - p_0_0 <= 0
Z_Bound_p_2_0_1: Z_2_0_1 - p_0_1 <= 0
Z_Bound_p_2_0_2: Z_2_0_2 - p_0_2 <= 0
Z_Bound_p_2_0_3: Z_2_0_3 - p_0_3 <= 0
Z_Bound_p_2_0_4: Z_2_0_4 - p_0_4 <= 0
Z_Bound_p_2_1_0: Z_2_1_0 - p_1_0 <= 0
Z_Bound_p_2_1_1: Z_2_1_1 - p_1_1 <= 0
Z_Bound_p_2_1_2: Z_2_1_2 - p_1_2 <= 0
Z_Bound_p_2_1_3: Z_2_1_3 - p_1_3 <= 0
Z_Bound_p_2_1_4: Z_2_1_4 - p_1_4 <= 0
Z_Bound_p_2_3_0: Z_2_3_0 - p_3_0 <= 0
Z_Bound_p_2_3_1: Z_2_3_1 - p_3_1 <= 0
Z_Bound_p_2_3_2: Z_2_3_2 - p_3_2 <= 0
Z_Bound_p_2_3_3: Z_2_3_3 - p_3_3 <= 0
Z_Bound_p_2_3_4: Z_2_3_4 - p_3_4 <= 0
Z_Bound_p_2_4_0: Z_2_4_0 - p_4_0 <= 0
Z_Bound_p_2_4_1: Z_2_4_1 - p_4_1 <= 0
Z_Bound_p_2_4_2: Z_2_4_2 - p_4_2 <= 0
Z_Bound_p_2_4_3: Z_2_4_3 - p_4_3 <= 0
Z_Bound_p_2_4_4: Z_2_4_4 - p_4_4 <= 0
Z_Bound_p_2_5_0: Z_2_5_0 - p_5_0 <= 0
Z_Bound_p_2_5_1: Z_2_5_1 - p_5_1 <= 0
Z_Bound_p_2_5_2: Z_2_5_2 - p_5_2 <= 0
Z_Bound_p_2_5_3: Z_2_5_3 - p_5_3 <= 0
Z_Bound_p_2_5_4: Z_2_5_4 - p_5_4 <= 0
Z_Bound_p_3_0_0: Z_3_0_0 - p_0_0 <= 0
Z_Bound_p_3_0_1: Z_3_0_1 - p_0_1 <= 0
Z_Bound_p_3_0_2: Z_3_0_2 - p_0_2 <= 0
Z_Bound_p_3_0_3: Z_3_0_3 - p_0_3 <= 0
Z_Bound_p_3_0_4: Z_3_0_4 - p_0_4 <= 0
Z_Bound_p_3_1_0: Z_3_1_0 - p_1_0 <= 0
Z_Bound_p_3_1_1: Z_3_1_1 - p_1_1 <= 0
Z_Bound_p_3_1_2: Z_3_1_2 - p_1_2 <= 0
Z_Bound_p_3_1_3: Z_3_1_3 - p_1_3 <= 0
Z_Bound_p_3_1_4: Z_3_1_4 - p_1_4 <= 0
Z_Bound_p_3_2_0: Z_3_2_0 - p_2_0 <= 0
Z_Bound_p_3_2_1: Z_3_2_1 - p_2_1 <= 0
Z_Bound_p_3_2_2: Z_3_2_2 - p_2_2 <= 0
Z_Bound_p_3_2_3: Z_3_2_3 - p_2_3 <= 0
Z_Bound_p_3_2_4: Z_3_2_4 - p_2_4 <= 0
Z_Bound_p_3_4_0: Z_3_4_0 - p_4_0 <= 0
Z_Bound_p_3_4_1: Z_3_4_1 - p_4_1 <= 0
Z_Bound_p_3_4_2: Z_3_4_2 - p_4_2 <= 0
Z_Bound_p_3_4_3: Z_3_4_3 - p_4_3 <= 0
Z_Bound_p_3_4_4: Z_3_4_4 - p_4_4 <= 0
Z_Bound_p_3_5_0: Z_3_5_0 - p_5_0 <= 0
Z_Bound_p_3_5_1: Z_3_5_1 - p_5_1 <= 0
Z_Bound_p_3_5_2: Z_3_5_2 - p_5_2 <= 0
Z_Bound_p_3_5_3: Z_3_5_3 - p_5_3 <= 0
Z_Bound_p_3_5_4: Z_3_5_4 - p_5_4 <= 0
Z_Bound_p_4_0_0: Z_4_0_0 - p_0_0 <= 0
Z_Bound_p_4_0_1: Z_4_0_1 - p_0_1 <= 0
Z_Bound_p_4_0_2: Z_4_0_2 - p_0_2 <= 0
Z_Bound_p_4_0_3: Z_4_0_3 - p_0_3 <= 0
Z_Bound_p_4_0_4: Z_4_0_4 - p_0_4 <= 0
Z_Bound_p_4_1_0: Z_4_1_0 - p_1_0 <= 0
Z_Bound_p_4_1_1: Z_4_1_1 - p_1_1 <= 0
Z_Bound_p_4_1_2: Z_4_1_2 - p_1_2 <= 0
Z_Bound_p_4_1_3: Z_4_1_3 - p_1_3 <= 0
Z_Bound_p_4_1_4: Z_4_1_4 - p_1_4 <= 0
Z_Bound_p_4_2_0: Z_4_2_0 - p_2_0 <= 0
Z_Bound_p_4_2_1: Z_4_2_1 - p_2_1 <= 0
Z_Bound_p_4_2_2: Z_4_2_2 - p_2_2 <= 0
Z_Bound_p_4_2_3: Z_4_2_3 - p_2_3 <= 0
Z_Bound_p_4_2_4: Z_4_2_4 - p_2_4 <= 0
Z_Bound_p_4_3_0: Z_4_3_0 - p_3_0 <= 0
Z_Bound_p_4_3_1: Z_4_3_1 - p_3_1 <= 0
Z_Bound_p_4_3_2: Z_4_3_2 - p_3_2 <= 0
Z_Bound_p_4_3_3: Z_4_3_3 - p_3_3 <= 0
Z_Bound_p_4_3_4: Z_4_3_4 - p_3_4 <= 0
Z_Bound_p_4_5_0: Z_4_5_0 - p_5_0 <= 0
Z_Bound_p_4_5_1: Z_4_5_1 - p_5_1 <= 0
Z_Bound_p_4_5_2: Z_4_5_2 - p_5_2 <= 0
Z_Bound_p_4_5_3: Z_4_5_3 - p_5_3 <= 0
Z_Bound_p_4_5_4: Z_4_5_4 - p_5_4 <= 0
Z_Bound_p_5_0_0: Z_5_0_0 - p_0_0 <= 0
Z_Bound_p_5_0_1: Z_5_0_1 - p_0_1 <= 0
Z_Bound_p_5_0_2: Z_5_0_2 - p_0_2 <= 0
Z_Bound_p_5_0_3: Z_5_0_3 - p_0_3 <= 0
Z_Bound_p_5_0_4: Z_5_0_4 - p_0_4 <= 0
Z_Bound_p_5_1_0: Z_5_1_0 - p_1_0 <= 0
Z_Bound_p_5_1_1: Z_5_1_1 - p_1_1 <= 0
Z_Bound_p_5_1_2: Z_5_1_2 - p_1_2 <= 0
Z_Bound_p_5_1_3: Z_5_1_3 - p_1_3 <= 0
Z_Bound_p_5_1_4: Z_5_1_4 - p_1_4 <= 0
Z_Bound_p_5_2_0: Z_5_2_0 - p_2_0 <= 0
Z_Bound_p_5_2_1: Z_5_2_1 - p_2_1 <= 0
Z_Bound_p_5_2_2: Z_5_2_2 - p_2_2 <= 0
Z_Bound_p_5_2_3: Z_5_2_3 - p_2_3 <= 0
Z_Bound_p_5_2_4: Z_5_2_4 - p_2_4 <= 0
Z_Bound_p_5_3_0: Z_5_3_0 - p_3_0 <= 0
Z_Bound_p_5_3_1: Z_5_3_1 - p_3_1 <= 0
Z_Bound_p_5_3_2: Z_5_3_2 - p_3_2 <= 0
Z_Bound_p_5_3_3: Z_5_3_3 - p_3_3 <= 0
Z_Bound_p_5_3_4: Z_5_3_4 - p_3_4 <= 0
Z_Bound_p_5_4_0: Z_5_4_0 - p_4_0 <= 0
Z_Bound_p_5_4_1: Z_5_4_1 - p_4_1 <= 0
Z_Bound_p_5_4_2: Z_5_4_2 - p_4_2 <= 0
Z_Bound_p_5_4_3: Z_5_4_3 - p_4_3 <= 0
Z_Bound_p_5_4_4: Z_5_4_4 - p_4_4 <= 0
Binaries
E_0_0_0
E_0_0_1
E_0_0_2
E_0_0_3
E_0_0_4
E_0_0_5
E_0_1_0
E_0_1_1
E_0_1_2
E_0_1_3
E_0_1_4
E_0_1_5
E_0_2_0
E_0_2_1
E_0_2_2
E_0_2_3
E_0_2_4
E_0_2_5
E_0_3_0
E_0_3_1
E_0_3_2
E_0_3_3
E_0_3_4
E_0_3_5
E_0_4_0
E_0_4_1
E_0_4_2
E_0_4_3
E_0_4_4
E_0_4_5
E_0_5_0
E_0_5_1
E_0_5_2
E_0_5_3
E_0_5_4
E_0_5_5
E_1_0_0
E_1_0_1
E_1_0_2
E_1_0_3
E_1_0_4
E_1_0_5
E_1_1_0
E_1_1_1
E_1_1_2
E_1_1_3
E_1_1_4
E_1_1_5
E_1_2_0
E_1_2_1
E_1_2_2
E_1_2_3
E_1_2_4
E_1_2_5
E_1_3_0
E_1_3_1
E_1_3_2
E_1_3_3
E_1_3_4
E_1_3_5
E_1_4_0
E_1_4_1
E_1_4_2
E_1_4_3
E_1_4_4
E_1_4_5
E_1_5_0
E_1_5_1
E_1_5_2
E_1_5_3
E_1_5_4
E_1_5_5
E_2_0_0
E_2_0_1
E_2_0_2
E_2_0_3
E_2_0_4
E_2_0_5
E_2_1_0
E_2_1_1
E_2_1_2
E_2_1_3
E_2_1_4
E_2_1_5
E_2_2_0
E_2_2_1
E_2_2_2
E_2_2_3
E_2_2_4
E_2_2_5
E_2_3_0
E_2_3_1
E_2_3_2
E_2_3_3
E_2_3_4
E_2_3_5
E_2_4_0
E_2_4_1
E_2_4_2
E_2_4_3
E_2_4_4
E_2_4_5
E_2_5_0
E_2_5_1
E_2_5_2
E_2_5_3
E_2_5_4
E_2_5_5
E_3_0_0
E_3_0_1
E_3_0_2
E_3_0_3
E_3_0_4
E_3_0_5
E_3_1_0
E_3_1_1
E_3_1_2
E_3_1_3
E_3_1_4
E_3_1_5
E_3_2_0
E_3_2_1
E_3_2_2
E_3_2_3
E_3_2_4
E_3_2_5
E_3_3_0
E_3_3_1
E_3_3_2
E_3_3_3
E_3_3_4
E_3_3_5
E_3_4_0
E_3_4_1
E_3_4_2
E_3_4_3
E_3_4_4
E_3_4_5
E_3_5_0
E_3_5_1
E_3_5_2
E_3_5_3
E_3_5_4
E_3_5_5
E_4_0_0
E_4_0_1
E_4_0_2
E_4_0_3
E_4_0_4
E_4_0_5
E_4_1_0
E_4_1_1
E_4_1_2
E_4_1_3
E_4_1_4
E_4_1_5
E_4_2_0
E_4_2_1
E_4_2_2
E_4_2_3
E_4_2_4
E_4_2_5
E_4_3_0
E_4_3_1
E_4_3_2
E_4_3_3
E_4_3_4
E_4_3_5
E_4_4_0
E_4_4_1
E_4_4_2
E_4_4_3
E_4_4_4
E_4_4_5
E_4_5_0
E_4_5_1
E_4_5_2
E_4_5_3
E_4_5_4
E_4_5_5
L_0_0_0
L_0_0_1
L_0_0_2
L_0_0_3
L_0_0_4
L_0_0_5
L_0_1_0
L_0_1_1
L_0_1_2
L_0_1_3
L_0_1_4
L_0_1_5
L_0_2_0
L_0_2_1
L_0_2_2
L_0_2_3
L_0_2_4
L_0_2_5
L_0_3_0
L_0_3_1
L_0_3_2
L_0_3_3
L_0_3_4
L_0_3_5
L_0_4_0
L_0_4_1
L_0_4_2
L_0_4_3
L_0_4_4
L_0_4_5
L_0_5_0
L_0_5_1
L_0_5_2
L_0_5_3
L_0_5_4
L_0_5_5
L_1_0_0
L_1_0_1
L_1_0_2
L_1_0_3
L_1_0_4
L_1_0_5
L_1_1_0
L_1_1_1
L_1_1_2
L_1_1_3
L_1_1_4
L_1_1_5
L_1_2_0
L_1_2_1
L_1_2_2
L_1_2_3
L_1_2_4
L_1_2_5
L_1_3_0
L_1_3_1
L_1_3_2
L_1_3_3
L_1_3_4
L_1_3_5
L_1_4_0
L_1_4_1
L_1_4_2
L_1_4_3
L_1_4_4
L_1_4_5
L_1_5_0
L_1_5_1
L_1_5_2
L_1_5_3
L_1_5_4
L_1_5_5
L_2_0_0
L_2_0_1
L_2_0_2
L_2_0_3
L_2_0_4
L_2_0_5
L_2_1_0
L_2_1_1
L_2_1_2
L_2_1_3
L_2_1_4
L_2_1_5
L_2_2_0
L_2_2_1
L_2_2_2
L_2_2_3
L_2_2_4
L_2_2_5
L_2_3_0
L_2_3_1
L_2_3_2
L_2_3_3
L_2_3_4
L_2_3_5
L_2_4_0
L_2_4_1
L_2_4_2
L_2_4_3
L_2_4_4
L_2_4_5
L_2_5_0
L_2_5_1
L_2_5_2
L_2_5_3
L_2_5_4
L_2_5_5
L_3_0_0
L_3_0_1
L_3_0_2
L_3_0_3
L_3_0_4
L_3_0_5
L_3_1_0
L_3_1_1
L_3_1_2
L_3_1_3
L_3_1_4
L_3_1_5
L_3_2_0
L_3_2_1
L_3_2_2
L_3_2_3
L_3_2_4
L_3_2_5
L_3_3_0
L_3_3_1
L_3_3_2
L_3_3_3
L_3_3_4
L_3_3_5
L_3_4_0
L_3_4_1
L_3_4_2
L_3_4_3
L_3_4_4
L_3_4_5
L_3_5_0
L_3_5_1
L_3_5_2
L_3_5_3
L_3_5_4
L_3_5_5
L_4_0_0
L_4_0_1
L_4_0_2
L_4_0_3
L_4_0_4
L_4_0_5
L_4_1_0
L_4_1_1
L_4_1_2
L_4_1_3
L_4_1_4
L_4_1_5
L_4_2_0
L_4_2_1
L_4_2_2
L_4_2_3
L_4_2_4
L_4_2_5
L_4_3_0
L_4_3_1
L_4_3_2
L_4_3_3
L_4_3_4
L_4_3_5
L_4_4_0
L_4_4_1
L_4_4_2
L_4_4_3
L_4_4_4
L_4_4_5
L_4_5_0
L_4_5_1
L_4_5_2
L_4_5_3
L_4_5_4
L_4_5_5
Mask_0_1
Mask_0_2
Mask_0_3
Mask_0_4
Mask_0_5
Mask_1_2
Mask_1_3
Mask_1_4
Mask_1_5
Mask_2_3
Mask_2_4
Mask_2_5
Mask_3_4
Mask_3_5
Mask_4_5
d_0
d_1
d_2
d_3
d_4
d_5
p_0_0
p_0_1
p_0_2
p_0_3
p_0_4
p_1_0
p_1_1
p_1_2
p_1_3
p_1_4
p_2_0
p_2_1
p_2_2
p_2_3
p_2_4
p_3_0
p_3_1
p_3_2
p_3_3
p_3_4
p_4_0
p_4_1
p_4_2
p_4_3
p_4_4
p_5_0
p_5_1
p_5_2
p_5_3
p_5_4
y_CZ_0_0_0
y_CZ_0_0_1
y_CZ_0_0_2
y_CZ_0_0_3
y_CZ_0_0_4
y_CZ_0_0_5
y_CZ_0_1_0
y_CZ_0_1_1
y_CZ_0_1_2
y_CZ_0_1_3
y_CZ_0_1_4
y_CZ_0_1_5
y_CZ_0_2_0
y_CZ_0_2_1
y_CZ_0_2_2
y_CZ_0_2_3
y_CZ_0_2_4
y_CZ_0_2_5
y_CZ_0_3_0
y_CZ_0_3_1
y_CZ_0_3_2
y_CZ_0_3_3
y_CZ_0_3_4
y_CZ_0_3_5
y_CZ_0_4_0
y_CZ_0_4_1
y_CZ_0_4_2
y_CZ_0_4_3
y_CZ_0_4_4
y_CZ_0_4_5
y_CZ_0_5_0
y_CZ_0_5_1
y_CZ_0_5_2
y_CZ_0_5_3
y_CZ_0_5_4
y_CZ_0_5_5
y_CZ_1_0_0
y_CZ_1_0_1
y_CZ_1_0_2
y_CZ_1_0_3
y_CZ_1_0_4
y_CZ_1_0_5
y_CZ_1_1_0
y_CZ_1_1_1
y_CZ_1_1_2
y_CZ_1_1_3
y_CZ_1_1_4
y_CZ_1_1_5
y_CZ_1_2_0
y_CZ_1_2_1
y_CZ_1_2_2
y_CZ_1_2_3
y_CZ_1_2_4
y_CZ_1_2_5
y_CZ_1_3_0
y_CZ_1_3_1
y_CZ_1_3_2
y_CZ_1_3_3
y_CZ_1_3_4
y_CZ_1_3_5
y_CZ_1_4_0
y_CZ_1_4_1
y_CZ_1_4_2
y_CZ_1_4_3
y_CZ_1_4_4
y_CZ_1_4_5
y_CZ_1_5_0
y_CZ_1_5_1
y_CZ_1_5_2
y_CZ_1_5_3
y_CZ_1_5_4
y_CZ_1_5_5
y_CZ_2_0_0
y_CZ_2_0_1
y_CZ_2_0_2
y_CZ_2_0_3
y_CZ_2_0_4
y_CZ_2_0_5
y_CZ_2_1_0
y_CZ_2_1_1
y_CZ_2_1_2
y_CZ_2_1_3
y_CZ_2_1_4
y_CZ_2_1_5
y_CZ_2_2_0
y_CZ_2_2_1
y_CZ_2_2_2
y_CZ_2_2_3
y_CZ_2_2_4
y_CZ_2_2_5
y_CZ_2_3_0
y_CZ_2_3_1
y_CZ_2_3_2
y_CZ_2_3_3
y_CZ_2_3_4
y_CZ_2_3_5
y_CZ_2_4_0
y_CZ_2_4_1
y_CZ_2_4_2
y_CZ_2_4_3
y_CZ_2_4_4
y_CZ_2_4_5
y_CZ_2_5_0
y_CZ_2_5_1
y_CZ_2_5_2
y_CZ_2_5_3
y_CZ_2_5_4
y_CZ_2_5_5
y_CZ_3_0_0
y_CZ_3_0_1
y_CZ_3_0_2
y_CZ_3_0_3
y_CZ_3_0_4
y_CZ_3_0_5
y_CZ_3_1_0
y_CZ_3_1_1
y_CZ_3_1_2
y_CZ_3_1_3
y_CZ_3_1_4
y_CZ_3_1_5
y_CZ_3_2_0
y_CZ_3_2_1
y_CZ_3_2_2
y_CZ_3_2_3
y_CZ_3_2_4
y_CZ_3_2_5
y_CZ_3_3_0
y_CZ_3_3_1
y_CZ_3_3_2
y_CZ_3_3_3
y_CZ_3_3_4
y_CZ_3_3_5
y_CZ_3_4_0
y_CZ_3_4_1
y_CZ_3_4_2
y_CZ_3_4_3
y_CZ_3_4_4
y_CZ_3_4_5
y_CZ_3_5_0
y_CZ_3_5_1
y_CZ_3_5_2
y_CZ_3_5_3
y_CZ_3_5_4
y_CZ_3_5_5
y_CZ_active_0
y_CZ_active_1
y_CZ_active_2
y_CZ_active_3
y_F_0_0_0
y_F_0_0_1
y_F_0_0_2
y_F_0_0_3
y_F_0_0_4
y_F_0_0_5
y_F_0_1_0
y_F_0_1_1
y_F_0_1_2
y_F_0_1_3
y_F_0_1_4
y_F_0_1_5
y_F_0_2_0
y_F_0_2_1
y_F_0_2_2
y_F_0_2_3
y_F_0_2_4
y_F_0_2_5
y_F_0_3_0
y_F_0_3_1
y_F_0_3_2
y_F_0_3_3
y_F_0_3_4
y_F_0_3_5
y_F_0_4_0
y_F_0_4_1
y_F_0_4_2
y_F_0_4_3
y_F_0_4_4
y_F_0_4_5
y_F_0_5_0
y_F_0_5_1
y_F_0_5_2
y_F_0_5_3
y_F_0_5_4
y_F_0_5_5
y_F_1_0_0
y_F_1_0_1
y_F_1_0_2
y_F_1_0_3
y_F_1_0_4
y_F_1_0_5
y_F_1_1_0
y_F_1_1_1
y_F_1_1_2
y_F_1_1_3
y_F_1_1_4
y_F_1_1_5
y_F_1_2_0
y_F_1_2_1
y_F_1_2_2
y_F_1_2_3
y_F_1_2_4
y_F_1_2_5
y_F_1_3_0
y_F_1_3_1
y_F_1_3_2
y_F_1_3_3
y_F_1_3_4
y_F_1_3_5
y_F_1_4_0
y_F_1_4_1
y_F_1_4_2
y_F_1_4_3
y_F_1_4_4
y_F_1_4_5
y_F_1_5_0
y_F_1_5_1
y_F_1_5_2
y_F_1_5_3
y_F_1_5_4
y_F_1_5_5
y_F_2_0_0
y_F_2_0_1
y_F_2_0_2
y_F_2_0_3
y_F_2_0_4
y_F_2_0_5
y_F_2_1_0
y_F_2_1_1
y_F_2_1_2
y_F_2_1_3
y_F_2_1_4
y_F_2_1_5
y_F_2_2_0
y_F_2_2_1
y_F_2_2_2
y_F_2_2_3
y_F_2_2_4
y_F_2_2_5
y_F_2_3_0
y_F_2_3_1
y_F_2_3_2
y_F_2_3_3
y_F_2_3_4
y_F_2_3_5
y_F_2_4_0
y_F_2_4_1
y_F_2_4_2
y_F_2_4_3
y_F_2_4_4
y_F_2_4_5
y_F_2_5_0
y_F_2_5_1
y_F_2_5_2
y_F_2_5_3
y_F_2_5_4
y_F_2_5_5
y_F_3_0_0
y_F_3_0_1
y_F_3_0_2
y_F_3_0_3
y_F_3_0_4
y_F_3_0_5
y_F_3_1_0
y_F_3_1_1
y_F_3_1_2
y_F_3_1_3
y_F_3_1_4
y_F_3_1_5
y_F_3_2_0
y_F_3_2_1
y_F_3_2_2
y_F_3_2_3
y_F_3_2_4
y_F_3_2_5
y_F_3_3_0
y_F_3_3_1
y_F_3_3_2
y_F_3_3_3
y_F_3_3_4
y_F_3_3_5
y_F_3_4_0
y_F_3_4_1
y_F_3_4_2
y_F_3_4_3
y_F_3_4_4
y_F_3_4_5
y_F_3_5_0
y_F_3_5_1
y_F_3_5_2
y_F_3_5_3
y_F_3_5_4
y_F_3_5_5
y_F_active_0
y_F_active_1
y_F_active_2
y_F_active_3
y_LC_0_0
y_LC_0_1
y_LC_0_2
y_LC_0_3
y_LC_0_4
y_LC_0_5
y_LC_1_0
y_LC_1_1
y_LC_1_2
y_LC_1_3
y_LC_1_4
y_LC_1_5
y_LC_2_0
y_LC_2_1
y_LC_2_2
y_LC_2_3
y_LC_2_4
y_LC_2_5
y_LC_3_0
y_LC_3_1
y_LC_3_2
y_LC_3_3
y_LC_3_4
y_LC_3_5
y_LC_active_0
y_LC_active_1
y_LC_active_2
y_LC_active_3
y_dummy_0
y_dummy_1
y_dummy_2
y_dummy_3
End
